 vasp.6.2.0 18Jan21 (build Jan 29 2021 15:03:46) complex

 executed on             LinuxIFC date 2021.03.12  12:03:31

 INCAR:
   AEXX = 0.25
   ALGO = all
   EDIFF = 7e-06
   ENCUT = 520
   GGA = pe
   HFSCREEN = 0.207
   ISIF = 3
   ISMEAR = 0
   ISPIN = 2
   KPAR = 30
   LASPH = .TRUE.
   LHFCALC = .TRUE.
   LMAXFOCK = 4
   LORBIT = 11
   LREAL = .FALSE.
   LVHAR = .TRUE.
   LWAVE = .TRUE.
   MAGMOM = 0.6 0.6 0.6 0.6 0.6 5 5
   NCORE = 1
   NEDOS = 2000
   NELM = 200
   NELMIN = 4
   NWRITE = 1
   PREC = accurate
   PRECFOCK = fast
   SIGMA = 0.05
   TIME = 0.3

 POTCAR:    PAW_PBE Li_sv 10Sep2004
 POTCAR:    PAW_PBE O 08Apr2002
 POTCAR:    PAW_PBE S 06Sep2000
 POTCAR:    PAW_PBE Fe_pv 02Aug2007
|           W    W    AA    RRRRR   N    N  II  N    N   GGGG   !!!           |
|           W    W   A  A   R    R  NN   N  II  NN   N  G    G  !!!           |
|           W    W  A    A  R    R  N N  N  II  N N  N  G       !!!           |
|           W WW W  AAAAAA  RRRRR   N  N N  II  N  N N  G  GGG   !            |
|           WW  WW  A    A  R   R   N   NN  II  N   NN  G    G                |
|           W    W  A    A  R    R  N    N  II  N    N   GGGG   !!!           |
|     For optimal performance we recommend to set                             |
|       NCORE = 2 up to number-of-cores-per-socket                            |
|     This setting can greatly improve the performance of VASP for DFT.       |
|     The default, NCORE=1 might be grossly inefficient on modern             |
|     multi-core architectures or massively parallel machines. Do your        |
|     Unfortunately you need to use the default for GW and RPA                |
|     calculations (for HF NCORE is supported but not extensively tested      |
|     yet).                                                                   |

 POTCAR:    PAW_PBE Li_sv 10Sep2004

 POTCAR:    PAW_PBE O 08Apr2002

 POTCAR:    PAW_PBE S 06Sep2000

 POTCAR:    PAW_PBE Fe_pv 02Aug2007

  PAW_PBE Li_sv 10Sep2004               :
  PAW_PBE O 08Apr2002                   :
  PAW_PBE S 06Sep2000                   :
  PAW_PBE Fe_pv 02Aug2007               :

 POSCAR: # Compound: Li2OS2Fe2. Old comment: Fe2L
  positions in direct lattice
 exchange correlation table for  LEXCH =        8
   RHO(1)=    0.500       N(1)  =     2000
   RHO(2)=  100.500       N(2)  =     4000

 ion  position               nearest neighbor table
   1  0.055  0.393  1.000-   3 1.91   3 1.92   4 2.69   5 2.69   4 2.69   5 2.70
   2  0.552  0.393  0.000-   3 1.91   3 1.92   5 2.69   4 2.69   5 2.69   4 2.70
   3  0.053  0.895  0.000-   2 1.91   1 1.91   1 1.92   2 1.92   7 2.01   6 2.01
   4  0.704  0.892  0.700-   7 2.40   6 2.68   1 2.69   2 2.69   1 2.69   2 2.70   6 2.70   6 2.73
                             6 2.75
   5  0.404  0.892  0.300-   6 2.40   7 2.68   2 2.69   1 2.69   2 2.69   1 2.70   7 2.70   7 2.73
                             7 2.75
   6  0.204  0.905  0.681-   3 2.01   5 2.40   4 2.68   4 2.70   4 2.73   4 2.75
   7  0.891  0.905  0.319-   3 2.01   4 2.40   5 2.68   5 2.70   5 2.73   5 2.75

  LATTYP: Found a base centered monoclinic cell.
 ALAT       =     5.4180856969
 B/A-ratio  =     1.0003958249
 C/A-ratio  =     1.2652362357
 COS(beta)  =    -0.3939624506

  Lattice vectors:

 A1 = (  -2.7090443500,   2.7101151100,   0.0035822600)
 A2 = (  -2.7090366100,  -2.7101152000,   0.0035822600)
 A3 = (   2.7090043300,   0.0000004500,   6.2971812400)

Analysis of symmetry for initial positions (statically):
 Subroutine PRICEL returns:
 Original cell was already a primitive cell.

 Routine SETGRP: Setting up the symmetry group for a
 base centered monoclinic supercell.

 Subroutine GETGRP returns: Found  2 space group operations
 (whereof  2 operations were pure point group operations)
 out of a pool of  4 trial point group operations.

The static configuration has the point symmetry C_2 .

Analysis of symmetry for dynamics (positions and initial velocities):
 Subroutine PRICEL returns:
 Original cell was already a primitive cell.

[...]

The dynamic configuration has the point symmetry C_2 .

Analysis of structural, dynamic, and magnetic symmetry:
 Subroutine PRICEL returns:
 Original cell was already a primitive cell.

 Routine SETGRP: Setting up the symmetry group for a
 base centered monoclinic supercell.

 Subroutine GETGRP returns: Found  2 space group operations
 (whereof  2 operations were pure point group operations)
 out of a pool of  4 trial point group operations.

The overall configuration has the point symmetry C_2 .

 Subroutine INISYM returns: Found  2 space group operations
 (whereof  2 operations are pure point group operations),
 and found     1 'primitive' translations

                                     Primitive cell

  volume of cell :      92.5180

  direct lattice vectors                    reciprocal lattice vectors
     5.418080960  0.000000090 -0.007164520     0.184462264 -0.184493742 -0.079354392
     2.709036610  2.710115200 -0.003582260    -0.000000006  0.368988011 -0.000000024
     2.709004330  0.000000450  6.297181240     0.000209869  0.000000000  0.158710926

  length of vectors
     5.418085697  3.831920743  6.855158352     0.272692844  0.368988011  0.158711064

  position of ions in fractional coordinates (direct lattice)
     0.055410890  0.392836590  0.999686950
     0.551752520  0.392836590  0.000313050
     0.052550430  0.894900160  1.000000000
     0.703598040  0.892387940  0.700006790
     0.404014020  0.892387940  0.299993210
     0.204222060  0.904608900  0.681264840
     0.891169040  0.904608900  0.318735160

  ion indices of the primitive-cell ions
   primitive index   ion index
                 1           1
                 2           2
                 3           3
                 4           4
                 5           5
                 6           6
                 7           7

 KPOINTS: # No comment

Automatic generation of k-mesh.
 Grid dimensions read from file:
 generate k-points for:    6    8    4

 Generating k-lattice:

  Cartesian coordinates                     Fractional coordinates (reciprocal lattice)
     0.030743711 -0.030748957 -0.013225732     0.166666667  0.000000000  0.000000000
    -0.000000001  0.046123501 -0.000000003    -0.000000000  0.125000000 -0.000000000
     0.000052467  0.000000000  0.039677731    -0.000000000 -0.000000000  0.250000000

  Length of vectors
     0.045448807  0.046123501  0.039677766

  Shift w.r.t. Gamma in fractional coordinates (k-lattice)
     0.000000000  0.000000000  0.000000000

 WARNING: IBZKPT: internal override: KBLOWUP is changed to .FALSE.
      ... skipping the blow-up phase ...

 Subroutine IBZKPT returns following result:

 Found     90 irreducible k-points:

 Following reciprocal coordinates:
            Coordinates               Weight
  0.000000  0.000000  0.000000      1.000000
  0.166667  0.000000  0.000000      2.000000
  0.333333  0.000000  0.000000      2.000000
  0.500000  0.000000 -0.000000      2.000000
  0.000000  0.125000  0.000000      2.000000
  0.166667  0.125000  0.000000      2.000000
  0.333333  0.125000 -0.000000      2.000000
  0.500000  0.125000 -0.000000      4.000000
 -0.333333  0.125000  0.000000      2.000000
 -0.166667  0.125000 -0.000000      2.000000
  0.000000  0.250000  0.000000      2.000000
  0.166667  0.250000  0.000000      2.000000
  0.333333  0.250000 -0.000000      2.000000
  0.500000  0.250000 -0.000000      2.000000
 -0.333333  0.250000  0.000000      2.000000
 -0.166667  0.250000  0.000000      2.000000
  0.000000  0.375000  0.000000      2.000000
  0.166667  0.375000  0.000000      2.000000
  0.333333  0.375000 -0.000000      2.000000
 -0.333333  0.375000  0.000000      2.000000
 -0.166667  0.375000  0.000000      2.000000
  0.000000  0.500000  0.000000      1.000000
  0.166667  0.500000  0.000000      2.000000
  0.333333  0.500000 -0.000000      2.000000
 -0.000000  0.000000  0.250000      2.000000
  0.166667  0.000000  0.250000      2.000000
  0.333333  0.000000  0.250000      2.000000
  0.500000  0.000000  0.250000      4.000000
 -0.333333 -0.000000  0.250000      2.000000
 -0.166667  0.000000  0.250000      2.000000
 -0.000000  0.125000  0.250000      4.000000
  0.166667  0.125000  0.250000      2.000000
  0.333333  0.125000  0.250000      2.000000
  0.500000  0.125000  0.250000      4.000000
 -0.333333  0.125000  0.250000      2.000000
 -0.166667  0.125000  0.250000      2.000000
 -0.000000  0.250000  0.250000      4.000000
  0.166667  0.250000  0.250000      2.000000
  0.333333  0.250000  0.250000      2.000000
  0.500000  0.250000  0.250000      2.000000
 -0.333333  0.250000  0.250000      2.000000
 -0.166667  0.250000  0.250000      2.000000
 -0.000000  0.375000  0.250000      4.000000
  0.166667  0.375000  0.250000      2.000000
  0.333333  0.375000  0.250000      2.000000
 -0.333333  0.375000  0.250000      2.000000
 -0.166667  0.375000  0.250000      2.000000
 -0.000000  0.500000  0.250000      2.000000
  0.166667  0.500000  0.250000      2.000000
  0.333333  0.500000  0.250000      2.000000
 -0.333333  0.500000  0.250000      2.000000
 -0.166667  0.500000  0.250000      2.000000
  0.166667 -0.375000  0.250000      2.000000
  0.333333 -0.375000  0.250000      2.000000
  0.500000 -0.375000  0.250000      4.000000
 -0.333333 -0.375000  0.250000      2.000000
 -0.166667 -0.375000  0.250000      2.000000
  0.166667 -0.250000  0.250000      2.000000
  0.333333 -0.250000  0.250000      2.000000
  0.500000 -0.250000  0.250000      2.000000
[...]
 -0.166667  0.125000  0.500000      2.000000
 -0.000000  0.250000  0.500000      2.000000
  0.166667  0.250000  0.500000      2.000000
  0.333333  0.250000  0.500000      2.000000
  0.500000  0.250000  0.500000      2.000000
 -0.333333  0.250000  0.500000      2.000000
 -0.166667  0.250000  0.500000      2.000000
 -0.000000  0.375000  0.500000      2.000000
  0.166667  0.375000  0.500000      2.000000
  0.333333  0.375000  0.500000      2.000000
 -0.333333  0.375000  0.500000      2.000000
 -0.166667  0.375000  0.500000      2.000000
  0.000000  0.500000  0.500000      1.000000
  0.166667  0.500000  0.500000      2.000000
  0.333333  0.500000  0.500000      2.000000

 Following cartesian coordinates:
            Coordinates               Weight
  0.000000  0.000000  0.000000      1.000000
  0.030744 -0.030749 -0.013226      2.000000
  0.061487 -0.061498 -0.026451      2.000000
  0.092231 -0.092247 -0.039677      2.000000
 -0.000000  0.046124 -0.000000      2.000000
  0.030744  0.015375 -0.013226      2.000000
  0.061487 -0.015374 -0.026451      2.000000
  0.092231 -0.046123 -0.039677      4.000000
 -0.061487  0.107621  0.026451      2.000000
 -0.030744  0.076872  0.013226      2.000000
 -0.000000  0.092247 -0.000000      2.000000
  0.030744  0.061498 -0.013226      2.000000
  0.061487  0.030749 -0.026451      2.000000
  0.092231  0.000000 -0.039677      2.000000
 -0.061487  0.153745  0.026451      2.000000
 -0.030744  0.122996  0.013226      2.000000
 -0.000000  0.138371 -0.000000      2.000000
  0.030744  0.107622 -0.013226      2.000000
  0.061487  0.076873 -0.026451      2.000000
 -0.061487  0.199868  0.026451      2.000000
[...]
 k-point  16 :  -0.1667 0.2500 0.0000  plane waves:    2496
 k-point  17 :   0.0000 0.3750 0.0000  plane waves:    2506
 k-point  18 :   0.1667 0.3750 0.0000  plane waves:    2494
 k-point  19 :   0.3333 0.3750-0.0000  plane waves:    2500
 k-point  20 :  -0.3333 0.3750 0.0000  plane waves:    2496
 k-point  21 :  -0.1667 0.3750 0.0000  plane waves:    2501
 k-point  22 :   0.0000 0.5000 0.0000  plane waves:    2502
 k-point  23 :   0.1667 0.5000 0.0000  plane waves:    2496
 k-point  24 :   0.3333 0.5000-0.0000  plane waves:    2498
 k-point  25 :  -0.0000 0.0000 0.2500  plane waves:    2462
 k-point  26 :   0.1667 0.0000 0.2500  plane waves:    2481
 k-point  27 :   0.3333 0.0000 0.2500  plane waves:    2493
 k-point  28 :   0.5000 0.0000 0.2500  plane waves:    2488
 k-point  29 :  -0.3333-0.0000 0.2500  plane waves:    2494
 k-point  30 :  -0.1667 0.0000 0.2500  plane waves:    2479
 k-point  31 :  -0.0000 0.1250 0.2500  plane waves:    2470
 k-point  32 :   0.1667 0.1250 0.2500  plane waves:    2470
 k-point  33 :   0.3333 0.1250 0.2500  plane waves:    2483
 k-point  34 :   0.5000 0.1250 0.2500  plane waves:    2502
 k-point  35 :  -0.3333 0.1250 0.2500  plane waves:    2490
 k-point  36 :  -0.1667 0.1250 0.2500  plane waves:    2490
 k-point  37 :  -0.0000 0.2500 0.2500  plane waves:    2488
 k-point  38 :   0.1667 0.2500 0.2500  plane waves:    2494
 k-point  39 :   0.3333 0.2500 0.2500  plane waves:    2492
 k-point  40 :   0.5000 0.2500 0.2500  plane waves:    2478
 k-point  41 :  -0.3333 0.2500 0.2500  plane waves:    2496
 k-point  42 :  -0.1667 0.2500 0.2500  plane waves:    2497
 k-point  43 :  -0.0000 0.3750 0.2500  plane waves:    2488
 k-point  44 :   0.1667 0.3750 0.2500  plane waves:    2487
 k-point  45 :   0.3333 0.3750 0.2500  plane waves:    2503
 k-point  46 :  -0.3333 0.3750 0.2500  plane waves:    2489
 k-point  47 :  -0.1667 0.3750 0.2500  plane waves:    2500
 k-point  48 :  -0.0000 0.5000 0.2500  plane waves:    2483
 k-point  49 :   0.1667 0.5000 0.2500  plane waves:    2495
 k-point  50 :   0.3333 0.5000 0.2500  plane waves:    2493
 k-point  51 :  -0.3333 0.5000 0.2500  plane waves:    2495
 k-point  52 :  -0.1667 0.5000 0.2500  plane waves:    2498
 k-point  53 :   0.1667-0.3750 0.2500  plane waves:    2496
 k-point  54 :   0.3333-0.3750 0.2500  plane waves:    2494
 k-point  55 :   0.5000-0.3750 0.2500  plane waves:    2492
 k-point  56 :  -0.3333-0.3750 0.2500  plane waves:    2492
 k-point  57 :  -0.1667-0.3750 0.2500  plane waves:    2494
 k-point  58 :   0.1667-0.2500 0.2500  plane waves:    2494
 k-point  59 :   0.3333-0.2500 0.2500  plane waves:    2496
 k-point  60 :   0.5000-0.2500 0.2500  plane waves:    2490
[...]
 k-point  76 :  -0.1667 0.1250 0.5000  plane waves:    2491
 k-point  77 :  -0.0000 0.2500 0.5000  plane waves:    2490
 k-point  78 :   0.1667 0.2500 0.5000  plane waves:    2487
 k-point  79 :   0.3333 0.2500 0.5000  plane waves:    2487
 k-point  80 :   0.5000 0.2500 0.5000  plane waves:    2487
 k-point  81 :  -0.3333 0.2500 0.5000  plane waves:    2492
 k-point  82 :  -0.1667 0.2500 0.5000  plane waves:    2491
 k-point  83 :  -0.0000 0.3750 0.5000  plane waves:    2482
 k-point  84 :   0.1667 0.3750 0.5000  plane waves:    2498
 k-point  85 :   0.3333 0.3750 0.5000  plane waves:    2500
 k-point  86 :  -0.3333 0.3750 0.5000  plane waves:    2484
 k-point  87 :  -0.1667 0.3750 0.5000  plane waves:    2500
 k-point  88 :   0.0000 0.5000 0.5000  plane waves:    2502
 k-point  89 :   0.1667 0.5000 0.5000  plane waves:    2495
 k-point  90 :   0.3333 0.5000 0.5000  plane waves:    2497

 maximum and minimum number of plane-waves per node :      2506     2462

 maximum number of plane-waves:      2506
 maximum index in each direction:
   IXMAX=   10   IYMAX=    7   IZMAX=   12
   IXMIN=  -10   IYMIN=   -7   IZMIN=  -13

 serial   3D FFT for wavefunctions
 parallel 3D FFT for charge:
    minimum data exchange during FFTs selected (reduces bandwidth)

 FFT grid for exact exchange (Hartree Fock)
  NGX = 24; NGY = 16; NGZ = 28

 Radii for the augmentation spheres in the non-local exchange
 for species   1 augmentation radius   0.956 (default was   0.708)
       energy cutoff for augmentation   2080.0
 for species   2 augmentation radius   0.974 (default was   0.722)
       energy cutoff for augmentation   2080.0
 for species   3 augmentation radius   1.309 (default was   0.970)
       energy cutoff for augmentation   2080.0
 for species   4 augmentation radius   1.283 (default was   0.950)
       energy cutoff for augmentation   2080.0
 Maximum index for augmentation-charges in exchange         1100
  SETUP_FOCK is finished

 Broyden mixing: mesh for mixing (old mesh)
   NGX = 21   NGY = 15   NGZ = 25
  (NGX  = 80   NGY  = 56   NGZ  =108)
  gives a total of   7875 points

 charge density for first step will be calculated from the start-wavefunctions

 Maximum index for augmentation-charges         4998 (set IRDMAX)

 initial charge from wavefunction
 First call to EWALD:  gamma=   0.392
 Maximum number of real-space cells 3x 4x 2
 Maximum number of reciprocal cells 3x 2x 4

--------------------------------------- Iteration      1(   1)  ---------------------------------------

 eigenvalue-minimisations  :     0
 total energy-change (2. order) :-0.5362423E+02  (-0.1295613E-04)
 number of electron      52.0000004 magnetization       7.9999999
 augmentation part       17.9430174 magnetization       5.3093001

 Free energy of the ion-electron system (eV)
  alpha Z        PSCENC =       150.56536251
  Ewald energy   TEWEN  =     -3876.98925256
  -Hartree energ DENC   =     -1920.38617533
  -exchange      EXHF   =       149.71265858
  -V(xc)+E(xc)   XCENC  =       168.33667640
  PAW double counting   =      6475.09008101    -6659.91306203
  entropy T*S    EENTRO =        -0.00000000
  eigenvalues    EBANDS =      -828.05594499
  atomic energy  EATOM  =      6288.01542772
  free energy    TOTEN  =       -53.62422869 eV

  energy without entropy =      -53.62422869  energy(sigma->0) =      -53.62422869
  exchange ACFDT corr.  =        -0.00000000  see jH, gK, PRB 81, 115126

[...]

--------------------------------------- Iteration      1(   4)  ---------------------------------------

 eigenvalue-minimisations  :     0
 total energy-change (2. order) :-0.2091406E-06  (-0.1799602E-06)
 number of electron      52.0000004 magnetization       7.9999999
 augmentation part       17.9430260 magnetization       5.3093031

 Free energy of the ion-electron system (eV)
  alpha Z        PSCENC =       150.56536251
  Ewald energy   TEWEN  =     -3876.98925256
  -Hartree energ DENC   =     -1920.38704387
  -exchange      EXHF   =       149.71266968
  -V(xc)+E(xc)   XCENC  =       168.33665244
  PAW double counting   =      6475.10859596    -6659.93188519
  entropy T*S    EENTRO =        -0.00000000
  eigenvalues    EBANDS =      -828.05476128
  atomic energy  EATOM  =      6288.01542772
  free energy    TOTEN  =       -53.62424416 eV

  energy without entropy =      -53.62424416  energy(sigma->0) =      -53.62424416
  exchange ACFDT corr.  =        -0.00000000  see jH, gK, PRB 81, 115126

  average scaling for gradient   0.9484

 average (electrostatic) potential at core
  the test charge radii are     0.7079  0.7215  0.9698  0.9500
  (the norm of the test charge is              1.0000)
       1 -52.8111       2 -52.8110       3 -63.0917       4 -81.7896       5 -81.7896
       6 -71.1810       7 -71.1810

 E-fermi :   5.0619     XC(G=0):  -8.7293     alpha+bet :-12.7796

 Fermi energy:         5.0618689842

 spin component 1

 k-point     1 :       0.0000    0.0000    0.0000
  band No.  band energies     occupation
      1     -55.8582      1.00000
      2     -55.8555      1.00000
      3     -54.3095      1.00000
      4     -54.3094      1.00000
      5     -54.3069      1.00000
      6     -54.3068      1.00000
      7     -43.0666      1.00000
      8     -43.0082      1.00000
      9     -15.3062      1.00000
     10      -9.5348      1.00000
     11      -8.6924      1.00000
     12      -2.5144      1.00000
     13      -1.2222      1.00000
     14      -1.2221      1.00000
     15      -1.0009      1.00000
     16      -0.4300      1.00000
     17      -0.4290      1.00000
     18       0.1070      1.00000
     19       0.2771      1.00000
     20       0.8238      1.00000
     21       0.8291      1.00000
     22       1.1416      1.00000
     23       1.2547      1.00000
     24       1.2548      1.00000
     25       2.0099      1.00000
     26       2.3388      1.00000
     27       2.3392      1.00000
     28       3.3389      1.00000
     29       3.5807      1.00000
     30       3.5814      1.00000
     31       8.7826      0.00000
     32       9.9346      0.00000
     33      11.5503      0.00000
     34      13.0736      0.00000
     35      13.1509      0.00000
     36      14.9612      0.00000
     37      14.9682      0.00000
     38      15.3486      0.00000
     39      15.3836      0.00000
     40      15.8913      0.00000

[...]

 k-point    90 :       0.3333    0.5000    0.5000
  band No.  band energies     occupation
      1     -55.8569      1.00000
      2     -55.8566      1.00000
      3     -54.3105      1.00000
      4     -54.3090      1.00000
      5     -54.3085      1.00000
      6     -54.3070      1.00000
      7     -43.0370      1.00000
      8     -43.0355      1.00000
      9     -15.3741      1.00000
     10      -8.7490      1.00000
     11      -8.5680      1.00000
     12      -2.3876      1.00000
     13      -1.5611      1.00000
     14      -1.3669      1.00000
     15      -1.1083      1.00000
     16      -1.0030      1.00000
     17      -0.6887      1.00000
     18      -0.5533      1.00000
     19      -0.4007      1.00000
     20       0.0033      1.00000
     21       0.6389      1.00000
     22       1.2029      1.00000
     23       1.3693      1.00000
     24       1.5140      1.00000
     25       1.7063      1.00000
     26       1.8307      1.00000
     27       3.4623      1.00000
     28       3.6497      1.00000
     29       3.7608      1.00000
     30       4.2223      1.00000
     31      10.4773      0.00000
     32      10.7073      0.00000
     33      10.9340      0.00000
     34      11.3467      0.00000
     35      12.3302      0.00000
     36      12.8399      0.00000
     37      14.1980      0.00000
     38      14.7021      0.00000
     39      15.1315      0.00000
     40      16.0112      0.00000
 Fermi energy:         5.0618689842

 spin component 2

[...]

 k-point    90 :       0.3333    0.5000    0.5000
  band No.  band energies     occupation
      1     -49.2023      1.00000
      2     -49.2019      1.00000
      3     -49.1681      1.00000
      4     -49.1672      1.00000
      5     -49.1653      1.00000
      6     -49.1646      1.00000
      7     -43.0385      1.00000
      8     -43.0371      1.00000
      9     -14.9686      1.00000
     10      -8.4408      1.00000
     11      -8.2560      1.00000
     12      -1.3191      1.00000
     13      -0.3745      1.00000
     14       0.0521      1.00000
     15       0.8075      1.00000
     16       0.8279      1.00000
     17       1.9856      1.00000
     18       2.0200      1.00000
     19       2.5016      1.00000
     20       2.7901      1.00000
     21       4.1511      1.00000
     22       4.1775      1.00000
     23       7.7149      0.00000
     24       7.9222      0.00000
     25       8.5341      0.00000
     26       8.7344      0.00000
     27       8.8482      0.00000
     28       9.2325      0.00000
     29       9.6624      0.00000
     30       9.8191      0.00000
     31      11.3009      0.00000
     32      11.5536      0.00000
     33      11.8361      0.00000
     34      12.2134      0.00000
     35      13.1843      0.00000
     36      13.5670      0.00000
     37      14.6176      0.00000
     38      15.3450      0.00000
     39      15.7130      0.00000
     40      16.6533      0.00000

 soft charge-density along one line, spin component           1
         0         1         2         3         4         5         6         7         8         9
 total charge-density along one line

 soft charge-density along one line, spin component           2
         0         1         2         3         4         5         6         7         8         9
 total charge-density along one line

------------------------ aborting loop because EDIFF is reached ----------------------------------------

 total charge

# of ion       s       p       d       tot
    1        2.025   0.073   0.000   2.098
    2        2.025   0.073   0.000   2.098
    3        1.553   3.555   0.000   5.108
    4        1.310   2.464   0.000   3.774
    5        1.310   2.464   0.000   3.774
    6        0.237   6.216   5.901  12.354
    7        0.237   6.216   5.901  12.354
tot          8.696  21.061  11.802  41.559

 magnetization (x)

[...]

  FORCE on cell =-STRESS in cart. coord.  units (eV):
  Direction    XX          YY          ZZ          XY          YZ          ZX
  Alpha Z   150.56536   150.56536   150.56536
  Ewald   -1490.63168 -1490.81901  -895.54264     0.00056     0.00002     5.89310
  Hartree   517.89466   517.70482   884.78687     0.00071     0.00003     4.75487
  E(xc)    -212.90485  -212.90509  -212.47259     0.00001    -0.00001     0.00309
  Local     115.38878   115.78403  -800.49942    -0.00068    -0.00011   -10.27953
  n-local   221.26672   221.27573   224.74359     0.31958    -0.02951    -0.04916
  augment   271.07838   271.06767   243.71065     0.00095    -0.00011    -0.28581
  Kinetic   666.38830   666.36935   631.80421     0.22749    -0.02026    -0.13655
  Fock     -239.04955  -239.04820  -227.13853     0.08410     0.00219     0.11461
  Total      -0.00388    -0.00533    -0.04248     0.00000    -0.00000     0.01463
  in kB      -0.06724    -0.09227    -0.73568     0.00000    -0.00000     0.25327

 VOLUME and BASIS-vectors are now :
  energy-cutoff  :      520.00
  volume of cell :       92.52
      direct lattice vectors                 reciprocal lattice vectors
     5.418080960  0.000000090 -0.007164520     0.184462264 -0.184493742 -0.079354392
     2.709036610  2.710115200 -0.003582260    -0.000000006  0.368988011 -0.000000024
     2.709004330  0.000000450  6.297181240     0.000209869  0.000000000  0.158710926

  length of vectors
     5.418085697  3.831920743  6.855158352     0.272692844  0.368988011  0.158711064

 FORCES acting on ions:
    Electron-Ion                     Ewald-Force                    Non-Local-Force
   -.138E+01 0.352E+00 -.905E-01   0.140E+01 -.322E+00 0.917E-01   -.241E-01 -.281E-01 0.154E-02
   0.138E+01 0.353E+00 0.905E-01   -.140E+01 -.323E+00 -.917E-01   0.241E-01 -.281E-01 -.154E-02
   -.794E-03 0.389E+01 0.180E-04   0.131E-03 -.401E+01 -.127E-04   -.143E-06 0.100E+00 -.168E-20
   0.317E+01 -.426E+01 -.897E+02   -.322E+01 0.430E+01 0.901E+02   0.464E-01 -.404E-01 -.353E+00
   -.317E+01 -.426E+01 0.897E+02   0.322E+01 0.430E+01 -.901E+02   -.464E-01 -.404E-01 0.353E+00
   -.273E+01 0.235E+01 0.751E+02   0.261E+01 -.198E+01 -.739E+02   0.125E+00 -.351E+00 -.115E+01
   0.273E+01 0.235E+01 -.751E+02   -.261E+01 -.198E+01 0.739E+02   -.125E+00 -.351E+00 0.115E+01
   -.808E-03 0.787E+00 0.715E-04   0.000E+00 0.444E-15 -.284E-13   0.106E-05 -.739E+00 0.000E+00

 POSITION                                       TOTAL-FORCE (eV/Angst)
      4.07259      1.06463      6.29341        -0.004204      0.003058      0.002973
      4.05450      1.06463     -0.00339         0.004204      0.003058     -0.002973
      2.70904      2.42528     -0.00358        -0.000000      0.000480      0.000000
      8.12598      2.41847      4.39983         0.008744      0.003493      0.017286
      5.41918      2.41847      1.88302        -0.008744      0.003493     -0.017286
      5.40266      2.45159      4.28534         0.017932     -0.006791     -0.001050
      8.14250      2.45159      1.99751        -0.017932     -0.006791      0.001050
    total drift:                               -0.000807     -0.000351      0.000071

  FREE ENERGIE OF THE ION-ELECTRON SYSTEM (eV)
  free  energy   TOTEN  =       -53.62424416 eV

  energy  without entropy=      -53.62424416  energy(sigma->0) =      -53.62424416

 writing wavefunctions

 total charge

[...]

 magnetization (x)

# of ion       s       p       d       tot
    1       -0.000   0.000   0.000  -0.000
    2       -0.000   0.000   0.000  -0.000
    3        0.011   0.127   0.000   0.138
    4        0.019   0.098   0.000   0.117
    5        0.019   0.098   0.000   0.117
    6        0.037   0.025   3.566   3.627
    7        0.037   0.025   3.566   3.627
tot          0.122   0.374   7.132   7.627