 vasp.6.2.0 18Jan21 (build Jan 29 2021 15:03:46) complex

 executed on             LinuxIFC date 2021.02.22  21:22:20

 INCAR:
   AEXX = 0.25
   ALGO = all
   EDIFF = 1e-05
   EDIFFG = -0.03
   ENCUT = 520
   GGA = pe
   HFSCREEN = 0.207
   IBRION = 2
   ISIF = 3
   ISMEAR = 0
   ISPIN = 2
   KPAR = 21
   LASPH = .TRUE.
   LHFCALC = .TRUE.
   LMAXFOCK = 4
   LORBIT = 11
   LREAL = .FALSE.
   LVHAR = .TRUE.
   LWAVE = .TRUE.
   MAGMOM = 0.6 0.6 0.6 0.6 5 5 0.6 0.6 0.6 0.6
   NCORE = 1
   NEDOS = 2000
   NELM = 200
   NELMIN = 4
   NSW = 60
   NWRITE = 1
   PREC = accurate
   PRECFOCK = fast
   SIGMA = 0.05
   TIME = 0.3

 POTCAR:    PAW_PBE Li_sv 10Sep2004
 POTCAR:    PAW_PBE Fe_pv 02Aug2007
 POTCAR:    PAW_PBE S 06Sep2000
 POTCAR:    PAW_PBE O 08Apr2002
|           W    W    AA    RRRRR   N    N  II  N    N   GGGG   !!!           |
|           W    W   A  A   R    R  NN   N  II  NN   N  G    G  !!!           |
|           W    W  A    A  R    R  N N  N  II  N N  N  G       !!!           |
|           W WW W  AAAAAA  RRRRR   N  N N  II  N  N N  G  GGG   !            |
|           WW  WW  A    A  R   R   N   NN  II  N   NN  G    G                |
|           W    W  A    A  R    R  N    N  II  N    N   GGGG   !!!           |
|     For optimal performance we recommend to set                             |
|       NCORE = 2 up to number-of-cores-per-socket                            |
|     This setting can greatly improve the performance of VASP for DFT.       |
|     The default, NCORE=1 might be grossly inefficient on modern             |
|     multi-core architectures or massively parallel machines. Do your        |
|     Unfortunately you need to use the default for GW and RPA                |
|     calculations (for HF NCORE is supported but not extensively tested      |
|     yet).                                                                   |

 POTCAR:    PAW_PBE Li_sv 10Sep2004

 POTCAR:    PAW_PBE Fe_pv 02Aug2007

 POTCAR:    PAW_PBE S 06Sep2000

 POTCAR:    PAW_PBE O 08Apr2002

  PAW_PBE Li_sv 10Sep2004               :
  PAW_PBE Fe_pv 02Aug2007               :
  PAW_PBE S 06Sep2000                   :
  PAW_PBE O 08Apr2002                   :

 POSCAR: # Compound: Li4Fe2S2O2. Old comment: Li2
  positions in direct lattice
 exchange correlation table for  LEXCH =        8
   RHO(1)=    0.500       N(1)  =     2000
   RHO(2)=  100.500       N(2)  =     4000

 ion  position               nearest neighbor table
   1  0.106  0.727  0.714-   9 1.97   9 1.97   7 2.66
   2  0.106  0.227  0.286-  10 1.97  10 1.97   8 2.66
   3  0.608  0.436  0.547-  10 2.00   9 2.02   8 2.54   8 2.55
   4  0.608  0.936  0.453-   9 2.00  10 2.02   7 2.54   7 2.55
   5  0.606  0.026  0.959-   9 2.01  10 2.02   8 2.55   8 2.56
   6  0.606  0.526  0.041-  10 2.01   9 2.02   7 2.55   7 2.56
   7  0.106  0.740  0.240-   4 2.54   4 2.55   6 2.55   6 2.56   1 2.66
   8  0.106  0.240  0.760-   3 2.54   3 2.55   5 2.55   5 2.56   2 2.66
   9  0.605  0.736  0.748-   1 1.97   1 1.97   4 2.00   5 2.01   6 2.02   3 2.02
  10  0.605  0.236  0.252-   2 1.97   2 1.97   3 2.00   6 2.01   5 2.02   4 2.02

  LATTYP: Found a simple monoclinic cell.
 ALAT       =     3.9190801968
 B/A-ratio  =     1.4302970260
 C/A-ratio  =     1.4320589446
 COS(beta)  =    -0.0024902322

  Lattice vectors:

 A1 = (   3.9190061000,  -0.0240993200,   0.0000000000)
 A2 = (   0.0000000000,   0.0000000000,  -5.6054487500)
 A3 = (   0.0205357400,   5.6123162800,   0.0000000000)

Analysis of symmetry for initial positions (statically):
 Subroutine PRICEL returns:
 Original cell was already a primitive cell.

 Routine SETGRP: Setting up the symmetry group for a
 simple monoclinic supercell.

 Subroutine GETGRP returns: Found  2 space group operations
 (whereof  1 operations were pure point group operations)
 out of a pool of  4 trial point group operations.

The static configuration has the point symmetry C_1 .
 The point group associated with its full space group is C_1h.

Analysis of symmetry for dynamics (positions and initial velocities):
 Subroutine PRICEL returns:
 Original cell was already a primitive cell.

[...]

The dynamic configuration has the point symmetry C_1 .
 The point group associated with its full space group is C_1h.

Analysis of structural, dynamic, and magnetic symmetry:
 Subroutine PRICEL returns:
 Original cell was already a primitive cell.

 Routine SETGRP: Setting up the symmetry group for a
 simple monoclinic supercell.

 Subroutine GETGRP returns: Found  2 space group operations
 (whereof  1 operations were pure point group operations)
 out of a pool of  4 trial point group operations.

The overall configuration has the point symmetry C_1 .
 The point group associated with its full space group is C_1h.

 Subroutine INISYM returns: Found  2 space group operations
 (whereof  1 operations are pure point group operations),
 and found     1 'primitive' translations

                                     Primitive cell

  volume of cell :     123.2929

  direct lattice vectors                    reciprocal lattice vectors
     3.919006100 -0.024099320  0.000000000     0.255160996 -0.000933647  0.000000000
     0.020535740  5.612316280  0.000000000     0.001095663  0.178175543  0.000000000
     0.000000000  0.000000000  5.605448750     0.000000000  0.000000000  0.178397849

  length of vectors
     3.919080197  5.612353851  5.605448750     0.255162704  0.178178912  0.178397849

  position of ions in fractional coordinates (direct lattice)
     0.106418770  0.726891310  0.714393110
     0.106418770  0.226891310  0.285606890
     0.608093500  0.435804320  0.546872520
     0.608093500  0.935804320  0.453127480
     0.605740360  0.025551280  0.959307580
     0.605740360  0.525551280  0.040692420
     0.105621080  0.739854980  0.239934860
     0.105621080  0.239854980  0.760065140
     0.605497290  0.735540110  0.747548600
     0.605497290  0.235540110  0.252451400

  ion indices of the primitive-cell ions
   primitive index   ion index
                 1           1
                 2           2
                 3           3
                 4           4
                 5           5
                 6           6
                 7           7
                 8           8
                 9           9
                10          10

 KPOINTS: # No comment

Automatic generation of k-mesh.
 Grid dimensions read from file:
 generate k-points for:    6    4    4

 Generating k-lattice:

  Cartesian coordinates                     Fractional coordinates (reciprocal lattice)
     0.042526833 -0.000155608  0.000000000     0.166666667 -0.000000000  0.000000000
     0.000273916  0.044543886  0.000000000    -0.000000000  0.250000000  0.000000000
     0.000000000  0.000000000  0.044599462     0.000000000  0.000000000  0.250000000

  Length of vectors
     0.042527117  0.044544728  0.044599462

  Shift w.r.t. Gamma in fractional coordinates (k-lattice)
     0.000000000  0.000000000  0.000000000

 Subroutine IBZKPT returns following result:

 Found     42 irreducible k-points:

 Following reciprocal coordinates:
            Coordinates               Weight
  0.000000  0.000000  0.000000      1.000000
  0.166667  0.000000  0.000000      2.000000
  0.333333 -0.000000  0.000000      2.000000
  0.500000  0.000000  0.000000      1.000000
 -0.000000  0.250000  0.000000      2.000000
  0.166667  0.250000  0.000000      2.000000
  0.333333  0.250000  0.000000      2.000000
  0.500000  0.250000  0.000000      2.000000
 -0.333333  0.250000  0.000000      2.000000
 -0.166667  0.250000  0.000000      2.000000
 -0.000000  0.500000  0.000000      1.000000
  0.166667  0.500000  0.000000      2.000000
  0.333333  0.500000  0.000000      2.000000
  0.500000  0.500000  0.000000      1.000000
  0.000000  0.000000  0.250000      2.000000
  0.166667  0.000000  0.250000      4.000000
  0.333333 -0.000000  0.250000      4.000000
  0.500000  0.000000  0.250000      2.000000
 -0.000000  0.250000  0.250000      4.000000
  0.166667  0.250000  0.250000      4.000000
  0.333333  0.250000  0.250000      4.000000
  0.500000  0.250000  0.250000      4.000000
 -0.333333  0.250000  0.250000      4.000000
 -0.166667  0.250000  0.250000      4.000000
 -0.000000  0.500000  0.250000      2.000000
  0.166667  0.500000  0.250000      4.000000
  0.333333  0.500000  0.250000      4.000000
  0.500000  0.500000  0.250000      2.000000
  0.000000  0.000000  0.500000      1.000000
  0.166667  0.000000  0.500000      2.000000
  0.333333 -0.000000  0.500000      2.000000
  0.500000  0.000000  0.500000      1.000000
 -0.000000  0.250000  0.500000      2.000000
  0.166667  0.250000  0.500000      2.000000
  0.333333  0.250000  0.500000      2.000000
  0.500000  0.250000  0.500000      2.000000
 -0.333333  0.250000  0.500000      2.000000
 -0.166667  0.250000  0.500000      2.000000
 -0.000000  0.500000  0.500000      1.000000
  0.166667  0.500000  0.500000      2.000000
  0.333333  0.500000  0.500000      2.000000
  0.500000  0.500000  0.500000      1.000000

 Following cartesian coordinates:
            Coordinates               Weight
  0.000000  0.000000  0.000000      1.000000
  0.042527 -0.000156  0.000000      2.000000
  0.085054 -0.000311  0.000000      2.000000
  0.127580 -0.000467  0.000000      1.000000
  0.000274  0.044544  0.000000      2.000000
  0.042801  0.044388  0.000000      2.000000
  0.085328  0.044233  0.000000      2.000000
  0.127854  0.044077  0.000000      2.000000
 -0.084780  0.044855  0.000000      2.000000
 -0.042253  0.044699  0.000000      2.000000
  0.000548  0.089088  0.000000      1.000000
  0.043075  0.088932  0.000000      2.000000
  0.085601  0.088777  0.000000      2.000000
  0.128128  0.088621  0.000000      1.000000
  0.000000  0.000000  0.044599      2.000000
  0.042527 -0.000156  0.044599      4.000000
  0.085054 -0.000311  0.044599      4.000000
  0.127580 -0.000467  0.044599      2.000000
  0.000274  0.044544  0.044599      4.000000
  0.042801  0.044388  0.044599      4.000000
  0.085328  0.044233  0.044599      4.000000
  0.127854  0.044077  0.044599      4.000000
 -0.084780  0.044855  0.044599      4.000000
 -0.042253  0.044699  0.044599      4.000000
  0.000548  0.089088  0.044599      2.000000
  0.043075  0.088932  0.044599      4.000000
  0.085601  0.088777  0.044599      4.000000
  0.128128  0.088621  0.044599      2.000000
  0.000000  0.000000  0.089199      1.000000
  0.042527 -0.000156  0.089199      2.000000
  0.085054 -0.000311  0.089199      2.000000
  0.127580 -0.000467  0.089199      1.000000
  0.000274  0.044544  0.089199      2.000000
  0.042801  0.044388  0.089199      2.000000
  0.085328  0.044233  0.089199      2.000000
  0.127854  0.044077  0.089199      2.000000
 -0.084780  0.044855  0.089199      2.000000
 -0.042253  0.044699  0.089199      2.000000
  0.000548  0.089088  0.089199      1.000000
  0.043075  0.088932  0.089199      2.000000
  0.085601  0.088777  0.089199      2.000000
  0.128128  0.088621  0.089199      1.000000

 Subroutine IBZKPT_HF returns following result:

 Found     96 k-points in 1st BZ
 the following     96 k-points will be used (e.g. in the exchange kernel)
[...]
     32       1.9235      1.00000
     33       2.9913      1.00000
     34       2.9913      1.00000
     35       3.1271      1.00000
     36       3.1271      1.00000
     37       8.2977      0.00000
     38       8.3198      0.00000
     39       8.7611      0.00000
     40       8.7611      0.00000
     41      11.5831      0.00000
     42      11.5831      0.00000
     43      11.7242      0.00000
     44      11.7287      0.00000
     45      14.5283      0.00000
 Fermi energy:         3.8579630747

[...]

 soft charge-density along one line, spin component           1
         0         1         2         3         4         5         6         7         8         9
 total charge-density along one line

[...]

------------------------ aborting loop because EDIFF is reached ----------------------------------------

 total charge

# of ion       s       p       d       tot
    1        2.019   0.061   0.000   2.080
    2        2.019   0.061   0.000   2.080
    3        2.018   0.059   0.000   2.077
    4        2.018   0.059   0.000   2.077
    5        0.250   6.241   5.915  12.407
    6        0.250   6.241   5.915  12.407
    7        1.307   2.449   0.000   3.756
    8        1.307   2.449   0.000   3.756
    9        1.553   3.520   0.000   5.072
   10        1.553   3.520   0.000   5.072
tot         14.294  24.660  11.830  50.784

 magnetization (x)

[...]

  FORCE on cell =-STRESS in cart. coord.  units (eV):
  Direction    XX          YY          ZZ          XY          YZ          ZX
  Alpha Z   159.04391   159.04391   159.04391
  Ewald   -1636.21589  -729.24545 -1671.43204     3.87620    -0.00000    -0.00000
  Hartree   608.94130  1298.28701   513.23047     2.84789     0.00001     0.00001
  E(xc)    -256.25395  -256.01987  -256.06687     0.00005    -0.00000     0.00000
  Local      23.32510 -1557.43105   171.91964    -6.74679    -0.00003     0.00001
  n-local   149.65980   153.85941   152.56585     0.04553    -0.18765    -0.07103
  augment   308.95120   299.64726   297.90531     0.01374     0.00000    -0.00000
  Kinetic   872.00247   856.83747   857.12370     0.05758    -0.68393    -0.80262
  Fock     -231.26875  -227.46965  -226.69636    -0.00325    -0.00777    -0.00023
  Total      -1.81482    -2.49096    -2.40639     0.09096     0.00000     0.00000
  in kB     -23.58333   -32.36974   -31.27077     1.18195     0.00000     0.00000

 VOLUME and BASIS-vectors are now :
  energy-cutoff  :      520.00
  volume of cell :      123.29
      direct lattice vectors                 reciprocal lattice vectors
     3.919006100 -0.024099320  0.000000000     0.255160996 -0.000933647  0.000000000
     0.020535740  5.612316280  0.000000000     0.001095663  0.178175543  0.000000000
     0.000000000  0.000000000  5.605448750     0.000000000  0.000000000  0.178397849

[...]

 FORCES acting on ions:
    Electron-Ion                     Ewald-Force                    Non-Local-Force
   0.622E+00 0.580E+01 0.724E+02   -.569E+00 -.589E+01 -.724E+02   -.535E-01 0.880E-01 -.136E-01
   0.622E+00 0.580E+01 -.724E+02   -.569E+00 -.589E+01 0.724E+02   -.535E-01 0.880E-01 0.136E-01
   -.198E+00 0.414E+01 0.124E+02   0.195E+00 -.446E+01 -.123E+02   -.918E-02 0.331E+00 -.123E+00
   -.198E+00 0.414E+01 -.124E+02   0.195E+00 -.446E+01 0.123E+02   -.918E-02 0.331E+00 0.123E+00
   0.208E+00 -.158E+02 0.834E+02   -.165E+00 0.171E+02 -.848E+02   -.433E-01 -.115E+01 0.122E+01
   0.208E+00 -.158E+02 -.834E+02   -.165E+00 0.171E+02 0.848E+02   -.433E-01 -.115E+01 -.122E+01
   -.723E+00 -.254E+02 -.150E+03   0.726E+00 0.260E+02 0.151E+03   0.295E-02 -.596E+00 -.125E+01
   -.723E+00 -.254E+02 0.150E+03   0.726E+00 0.260E+02 -.151E+03   0.295E-02 -.596E+00 0.125E+01
   0.175E+00 0.312E+02 0.265E+03   -.187E+00 -.327E+02 -.274E+03   0.283E-01 0.130E+01 0.781E+01
   0.175E+00 0.312E+02 -.265E+03   -.187E+00 -.327E+02 0.274E+03   0.283E-01 0.130E+01 -.781E+01
   0.166E+00 -.134E-01 0.109E-03   -.139E-14 0.000E+00 -.568E-13   -.149E+00 -.466E-01 -.888E-15

 POSITION                                       TOTAL-FORCE (eV/Angst)
      0.43198      4.07698      4.00449         0.002206     -0.006795     -0.008732
      0.42172      1.27082      1.60095         0.002206     -0.006795      0.008732
      2.39207      2.43122      3.06547        -0.008963      0.012808     -0.022896
      2.40234      5.23738      2.53998        -0.008963      0.012808      0.022896
      2.37442      0.12880      5.37735        -0.009755      0.004869     -0.012001
      2.38469      2.93496      0.22810        -0.009755      0.004869      0.012001
      0.42912      4.14975      1.34494        -0.000679     -0.051339     -0.101552
      0.41886      1.34360      4.26051        -0.000679     -0.051339      0.101552
      2.38805      4.11349      4.19035         0.017191      0.040457      0.378830
      2.37778      1.30733      1.41510         0.017191      0.040457     -0.378830
    total drift:                                0.063101     -0.005945      0.000109

  FREE ENERGIE OF THE ION-ELECTRON SYSTEM (eV)
  free  energy   TOTEN  =       -70.83008622 eV

  energy  without entropy=      -70.83008622  energy(sigma->0) =      -70.83008622

 writing wavefunctions

[...]

  free energy =  -0.696399934003E+02  energy without entropy=  -0.696399934002E+02

[...]

 d Force = 0.5752957E-02[-0.371E-02, 0.152E-01]  d Energy = 0.4064984E-01-0.349E-01
 d Force =-0.1168557E+02[-0.119E+02,-0.114E+02]  d Ewald  = 0.3112521E+02-0.428E+02

 Steepest descent step on ions:
 trial-energy change:   -0.040650  1 .order   -0.039697   -0.089233    0.009840
  (g-gl).g = 0.892E-01      g.g   = 0.892E-01  gl.gl    = 0.000E+00
 g(Force)  = 0.154E-01   g(Stress)= 0.738E-01 ortho     = 0.000E+00
 gamma     =   0.00000
 trial     =   1.00000
 opt step  =   0.90561  (harmonic =   0.90068) maximal distance =0.01655078
 next E    =   -70.871200   (d E  =  -0.04111)

[...]

 d Force = 0.2589881E-03[ 0.163E-03, 0.355E-03]  d Energy = 0.4680727E-03-0.209E-03
 d Force = 0.1139329E+01[ 0.114E+01, 0.114E+01]  d Ewald  =-0.2941203E+01 0.408E+01

[...]

 d Force = 0.5365683E-03[ 0.424E-03, 0.649E-03]  d Energy = 0.5941681E-03-0.576E-04
 d Force = 0.2024249E+01[ 0.202E+01, 0.203E+01]  d Ewald  = 0.3319833E+01-0.130E+01

 Conjugate gradient step on ions:
 trial-energy change:   -0.000594  1 .order   -0.000602   -0.000739   -0.000465
  (g-gl).g = 0.698E-03      g.g   = 0.753E-03  gl.gl    = 0.892E-01
 g(Force)  = 0.675E-03   g(Stress)= 0.779E-04 ortho     = 0.549E-04
 gamma     =   0.00783
 trial     =   0.98112
 opt step  =   2.63938  (harmonic =   2.63938) maximal distance =0.00641624
 next E    =   -70.872199   (d E  =  -0.00099)

[...]

 d Force = 0.4121697E-03[ 0.108E-03, 0.717E-03]  d Energy = 0.4582998E-03-0.461E-04
 d Force = 0.3408754E+01[ 0.340E+01, 0.342E+01]  d Ewald  = 0.5601346E+01-0.219E+01

 writing wavefunctions

[...]

 eigenvalue-minimisations  :     0
 total energy-change (2. order) : 0.1719217E-01  (-0.1043681E-01)
 number of electron      63.9999981 magnetization       7.9999996
 augmentation part       20.4993533 magnetization       5.3408853

[...]

--------------------------------------- Iteration      6(   8)  ---------------------------------------

 eigenvalue-minimisations  :     0
 total energy-change (2. order) :-0.8870517E-05  (-0.3873603E-05)
 number of electron      63.9999981 magnetization       7.9999996
 augmentation part       20.4973714 magnetization       5.3409696

  free energy =  -0.708726392656E+02  energy without entropy=  -0.708726392656E+02

  average scaling for gradient   0.9196

 average (electrostatic) potential at core
  the test charge radii are     0.7079  0.9500  0.9698  0.7215
  (the norm of the test charge is              1.0000)
       1 -53.5171       2 -53.5171       3 -53.7372       4 -53.7372       5 -71.6038
       6 -71.6038       7 -82.2315       8 -82.2315       9 -63.7920      10 -63.7920

 E-fermi :   4.2238     XC(G=0):  -8.5080     alpha+bet :-13.0329

 Fermi energy:         4.2238103121

[...]

 k-point    42 :       0.5000    0.5000    0.5000
  band No.  band energies     occupation
      1     -56.1999      1.00000
      2     -56.1999      1.00000
      3     -54.8955      1.00000
      4     -54.8955      1.00000
      5     -54.6491      1.00000
      6     -54.6491      1.00000
      7     -43.9567      1.00000
      8     -43.9567      1.00000
      9     -43.7328      1.00000
     10     -43.7328      1.00000
     11     -15.9988      1.00000
     12     -15.9988      1.00000
     13      -8.9526      1.00000
     14      -8.9526      1.00000
     15      -2.5372      1.00000
     16      -2.5372      1.00000
     17      -2.1691      1.00000
     18      -2.1691      1.00000
     19      -1.7252      1.00000
     20      -1.7252      1.00000
     21      -1.3275      1.00000
     22      -1.3275      1.00000
     23      -0.4179      1.00000
     24      -0.4179      1.00000
     25       0.3162      1.00000
     26       0.3162      1.00000
     27       0.8400      1.00000
     28       0.8400      1.00000
     29       1.0209      1.00000
     30       1.0209      1.00000
     31       2.1530      1.00000
     32       2.1530      1.00000
     33       3.3644      1.00000
     34       3.3644      1.00000
     35       3.4316      1.00000
     36       3.4316      1.00000
     37       8.7259      0.00000
     38       8.7259      0.00000
     39       9.1034      0.00000
     40       9.1034      0.00000
     41      11.9052      0.00000
     42      11.9052      0.00000
     43      12.1074      0.00000
     44      12.1076      0.00000
     45      15.0842      0.00000
 Fermi energy:         4.2238103121

 spin component 2

[...]

 k-point    42 :       0.5000    0.5000    0.5000
  band No.  band energies     occupation
      1     -49.6423      1.00000
      2     -49.6423      1.00000
      3     -49.6348      1.00000
      4     -49.6348      1.00000
      5     -49.5900      1.00000
      6     -49.5899      1.00000
      7     -43.9455      1.00000
      8     -43.9455      1.00000
      9     -43.7347      1.00000
     10     -43.7346      1.00000
     11     -15.6185      1.00000
     12     -15.6185      1.00000
     13      -8.6787      1.00000
     14      -8.6786      1.00000
     15      -1.8202      1.00000
     16      -1.8202      1.00000
     17      -1.1018      1.00000
     18      -1.1018      1.00000
     19      -0.1104      1.00000
     20      -0.1104      1.00000
     21       0.9338      1.00000
     22       0.9338      1.00000
     23       2.2525      1.00000
     24       2.2525      1.00000
     25       2.7995      1.00000
     26       2.7995      1.00000
     27       3.6691      1.00000
     28       3.6691      1.00000
     29       7.1650      0.00000
     30       7.1650      0.00000
     31       7.6389      0.00000
     32       7.6389      0.00000
     33       8.5409      0.00000
     34       8.5409      0.00000
     35       8.5839      0.00000
     36       8.5839      0.00000
     37       9.8849      0.00000
     38       9.8849      0.00000
     39      10.3079      0.00000
     40      10.3080      0.00000
     41      12.7093      0.00000
     42      12.7095      0.00000
     43      13.1189      0.00000
     44      13.1196      0.00000
     45      15.6590      0.00000

[...]

 soft charge-density along one line, spin component           2
         0         1         2         3         4         5         6         7         8         9
 total charge-density along one line

------------------------ aborting loop because EDIFF is reached ----------------------------------------

[...]

  FORCE on cell =-STRESS in cart. coord.  units (eV):
  Direction    XX          YY          ZZ          XY          YZ          ZX
  Alpha Z   164.20171   164.20171   164.20171
  Ewald   -1661.90226  -724.94337 -1686.98695     4.01699     0.00000    -0.00000
  Hartree   596.32006  1303.11741   505.62937     3.18260     0.00001    -0.00000
  E(xc)    -256.63966  -256.38836  -256.44408     0.00090    -0.00000    -0.00000
  Local      55.90167 -1571.96256   188.71346    -7.11558    -0.00004    -0.00000
  n-local   148.99248   153.55226   152.23880     0.01364    -0.19506    -0.07231
  augment   308.40119   299.19815   297.99357    -0.05394    -0.00000     0.00000
  Kinetic   875.83012   860.61627   861.49126    -0.08027    -0.70548    -0.81054
  Fock     -231.06894  -227.36072  -226.79302     0.01898    -0.00818    -0.00070
  Total       0.03637     0.03079     0.04410    -0.01668     0.00000     0.00000
  in kB       0.48796     0.41314     0.59172    -0.22383     0.00000     0.00000

 VOLUME and BASIS-vectors are now :
  energy-cutoff  :      520.00
  volume of cell :      119.42
      direct lattice vectors                 reciprocal lattice vectors
     3.887618139 -0.019054644  0.000000000     0.257220733 -0.001260227  0.000000000
     0.027169466  5.545470592  0.000000000     0.000883829  0.180323017  0.000000000
     0.000000000  0.000000000  5.539175780     0.000000000  0.000000000  0.180532274

  length of vectors
     3.887664836  5.545537149  5.539175780     0.257223820  0.180325183  0.180532274

 FORCES acting on ions:
    Electron-Ion                     Ewald-Force                    Non-Local-Force
   0.366E+00 0.623E+01 0.738E+02   -.346E+00 -.633E+01 -.738E+02   -.202E-01 0.939E-01 0.102E-01
   0.366E+00 0.623E+01 -.738E+02   -.346E+00 -.633E+01 0.738E+02   -.202E-01 0.939E-01 -.102E-01
   -.501E-01 0.432E+01 0.120E+02   0.600E-01 -.464E+01 -.118E+02   -.153E-01 0.323E+00 -.154E+00
   -.501E-01 0.432E+01 -.120E+02   0.600E-01 -.464E+01 0.118E+02   -.153E-01 0.323E+00 0.154E+00
   0.231E+00 -.173E+02 0.881E+02   -.199E+00 0.185E+02 -.893E+02   -.194E-01 -.112E+01 0.115E+01
   0.231E+00 -.173E+02 -.881E+02   -.199E+00 0.185E+02 0.893E+02   -.194E-01 -.112E+01 -.115E+01
   -.249E+00 -.270E+02 -.153E+03   0.244E+00 0.276E+02 0.154E+03   0.110E-01 -.599E+00 -.112E+01
   -.249E+00 -.270E+02 0.153E+03   0.244E+00 0.276E+02 -.154E+03   0.110E-01 -.599E+00 0.112E+01
   -.215E+00 0.336E+02 0.274E+03   0.242E+00 -.352E+02 -.283E+03   -.218E-01 0.141E+01 0.790E+01
   -.215E+00 0.336E+02 -.274E+03   0.242E+00 -.352E+02 0.283E+03   -.218E-01 0.141E+01 -.790E+01
   0.164E+00 -.320E+00 0.997E-04   0.608E-14 0.711E-14 -.568E-13   -.131E+00 0.214E+00 0.000E+00

 POSITION                                       TOTAL-FORCE (eV/Angst)
      0.43376      4.02745      3.95560         0.001311     -0.006867     -0.004945
      0.42018      1.25471      1.58357         0.001311     -0.006867      0.004945
      2.37356      2.40947      3.02408        -0.003930      0.013205     -0.005462
      2.38714      5.18221      2.51509        -0.003930      0.013205      0.005462
      2.35473      0.13366      5.30721         0.003761      0.012246     -0.014246
      2.36832      2.90639      0.23197         0.003761      0.012246      0.014246
      0.43113      4.09643      1.33276         0.000810     -0.018853      0.009421
      0.41755      1.32369      4.20641         0.000810     -0.018853     -0.009421
      2.37638      4.06544      4.15445        -0.001952      0.000270      0.021328
      2.36280      1.29270      1.38473        -0.001952      0.000270     -0.021328
    total drift:                                0.057532     -0.009027      0.000100

  FREE ENERGIE OF THE ION-ELECTRON SYSTEM (eV)
  free  energy   TOTEN  =       -70.87263927 eV

  energy  without entropy=      -70.87263927  energy(sigma->0) =      -70.87263927

 d Force = 0.3619360E-03[ 0.308E-03, 0.416E-03]  d Energy = 0.3826723E-03-0.207E-04
 d Force = 0.1983815E+00[ 0.198E+00, 0.199E+00]  d Ewald  =-0.1659053E+00 0.364E+00

 Conjugate gradient step on ions:
 trial-energy change:   -0.000383  1 .order   -0.000374   -0.000437   -0.000311
  (g-gl).g = 0.292E-03      g.g   = 0.321E-03  gl.gl    = 0.753E-03
 g(Force)  = 0.292E-03   g(Stress)= 0.286E-04 ortho     = 0.321E-04
 gamma     =   0.38732
 trial     =   1.31277
 opt step  =   4.54444  (harmonic =   4.54444) maximal distance =0.00785764
 next E    =   -70.873013   (d E  =  -0.00076)

 reached required accuracy - stopping structural energy minimisation
 writing wavefunctions

 total charge

[...]

 magnetization (x)

# of ion       s       p       d       tot
    1       -0.000  -0.000   0.000  -0.000
    2       -0.000  -0.000   0.000  -0.000
    3        0.001   0.003   0.000   0.004
    4        0.001   0.003   0.000   0.004
    5        0.029   0.022   3.538   3.589
    6        0.029   0.022   3.538   3.589
    7        0.016   0.092   0.000   0.108
    8        0.016   0.092   0.000   0.108
    9        0.008   0.118   0.000   0.126
   10        0.008   0.118   0.000   0.126
tot          0.108   0.472   7.076   7.656