 vasp.6.2.0 18Jan21 (build Feb  9 2021 11:43:09) complex
 executed on       CrayXC_GCC_OMP date 2021.04.30  10:38:36

 INCAR:
   AEXX = 0.25
   ALGO = all
   EDIFF = 2.4e-05
   ENCUT = 520
   GGA = pe
   HFSCREEN = 0.207
   ISIF = 3
   ISMEAR = 0
   ISPIN = 2
   KPAR = 18
   LASPH = .TRUE.
   LHFCALC = .TRUE.
   LMAXFOCK = 4
   LORBIT = 11
   LREAL = .FALSE.
   LVHAR = .TRUE.
   LWAVE = .TRUE.
   MAGMOM = 0.6 0.6 0.6 0.6 0.6 0.6 0.6 0.6 5 5 5 5 5 5 0.6 0.6 0.6 0.6 0.6 0.6 0.6 0.6 0.6 0.6
   NCORE = 8
   NEDOS = 2000
   NELM = 200
   NELMIN = 4
   NWRITE = 1
   PREC = accurate
   PRECFOCK = fast
   SIGMA = 0.05
   TIME = 0.3

 POTCAR:    PAW_PBE Li_sv 10Sep2004
 POTCAR:    PAW_PBE Fe_pv 02Aug2007
 POTCAR:    PAW_PBE S 06Sep2000
 POTCAR:    PAW_PBE O 08Apr2002
 POTCAR:    PAW_PBE Li_sv 10Sep2004

 POTCAR:    PAW_PBE Fe_pv 02Aug2007

 POTCAR:    PAW_PBE S 06Sep2000

 POTCAR:    PAW_PBE O 08Apr2002

  PAW_PBE Li_sv 10Sep2004               :
  PAW_PBE Fe_pv 02Aug2007               :
  PAW_PBE S 06Sep2000                   :
  PAW_PBE O 08Apr2002                   :

 POSCAR: # Compound: Li8Fe6S6O4. Old comment: Fe6
  positions in direct lattice
 exchange correlation table for  LEXCH =        8
   RHO(1)=    0.500       N(1)  =     2000
   RHO(2)=  100.500       N(2)  =     4000

 ion  position               nearest neighbor table
   1  0.954  0.003  0.005-  23 1.92  22 2.02  16 2.55  16 2.55
   2  0.546  0.997  0.995-  21 1.92  24 2.02  16 2.55  16 2.55
   3  0.361  0.806  0.611-  21 1.98  17 2.46  19 2.63  19 2.63
   4  0.139  0.194  0.389-  23 1.98  19 2.46  17 2.63  17 2.63
   5  0.217  0.921  0.843-  21 1.87  22 1.97  15 2.58  15 2.58
   6  0.686  0.888  0.776-  21 1.87  22 1.97  20 2.50  20 2.50
   7  0.283  0.079  0.157-  23 1.87  24 1.97  15 2.58  15 2.58
   8  0.814  0.112  0.224-  23 1.87  24 1.97  18 2.50  18 2.50
   9  0.931  0.801  0.603-  22 2.06  18 2.37  19 2.60  19 2.60
  10  0.569  0.199  0.397-  24 2.06  20 2.37  17 2.60  17 2.60
  11  0.446  0.400  0.801-  21 2.05  21 2.05  19 2.58  20 2.61  15 2.73  16 2.77
  12  0.955  0.407  0.815-  22 2.05  22 2.05  19 2.57  20 2.59  15 2.64  16 2.66
  13  0.054  0.600  0.199-  23 2.05  23 2.05  17 2.58  18 2.61  15 2.73  16 2.77
  14  0.545  0.593  0.185-  24 2.05  24 2.05  17 2.57  18 2.59  15 2.64  16 2.66
  15  0.250  0.500  0.000-   5 2.58   7 2.58   7 2.58   5 2.58  14 2.64  12 2.64  11 2.73  13 2.73

  16  0.750  0.500  0.000-   1 2.55   2 2.55   2 2.55   1 2.55  14 2.66  12 2.66  11 2.77  13 2.77

  17  0.352  0.684  0.369-   3 2.46  14 2.57  13 2.58  10 2.60  10 2.60   4 2.63   4 2.63
  18  0.832  0.684  0.368-   9 2.37   8 2.50   8 2.50  14 2.59  13 2.61
  19  0.148  0.316  0.631-   4 2.46  12 2.57  11 2.58   9 2.60   9 2.60   3 2.63   3 2.63
  20  0.668  0.316  0.632-  10 2.37   6 2.50   6 2.50  12 2.59  11 2.61
  21  0.451  0.903  0.807-   6 1.87   5 1.87   2 1.92   3 1.98  11 2.05  11 2.05
  22  0.952  0.904  0.807-   5 1.97   6 1.97   1 2.02  12 2.05  12 2.05   9 2.06
  23  0.049  0.097  0.193-   8 1.87   7 1.87   1 1.92   4 1.98  13 2.05  13 2.05
  24  0.548  0.096  0.193-   7 1.97   8 1.97   2 2.02  14 2.05  14 2.05  10 2.06

  LATTYP: Found a base centered monoclinic cell.
 ALAT       =    20.4026373785
 B/A-ratio  =     0.2005261879
 C/A-ratio  =     0.3701468609
 COS(beta)  =    -0.1847673325

  Lattice vectors:

 A1 = (  -0.1466724200,   3.8629105100,   9.6596025300)
 A2 = (  -0.0092337000,  -0.1578620200,  10.4031969000)
 A3 = (   7.4282012600,   0.0020899400,  -1.3616554200)

Analysis of symmetry for initial positions (statically):
 Subroutine PRICEL returns:
 Original cell was already a primitive cell.

 Routine SETGRP: Setting up the symmetry group for a
 base centered monoclinic supercell.

 Subroutine GETGRP returns: Found  4 space group operations
 (whereof  2 operations were pure point group operations)
 out of a pool of  4 trial point group operations.

The static configuration has the point symmetry C_1h.
 The point group associated with its full space group is C_2h.

Analysis of symmetry for dynamics (positions and initial velocities):
 Subroutine PRICEL returns:
 Original cell was already a primitive cell.

[...]

The dynamic configuration has the point symmetry C_1h.
 The point group associated with its full space group is C_2h.

Analysis of structural, dynamic, and magnetic symmetry:
 Subroutine PRICEL returns:
 Original cell was already a primitive cell.

 Routine SETGRP: Setting up the symmetry group for a
 base centered monoclinic supercell.

 Subroutine GETGRP returns: Found  4 space group operations
 (whereof  2 operations were pure point group operations)
 out of a pool of  4 trial point group operations.

The overall configuration has the point symmetry C_1h.
 The point group associated with its full space group is C_2h.

 Subroutine INISYM returns: Found  4 space group operations
 (whereof  2 operations are pure point group operations),
 and found     1 'primitive' translations

                                     Primitive cell

  volume of cell :     309.7643

  direct lattice vectors                    reciprocal lattice vectors
     7.428201260  0.002089940 -1.361655420     0.134655598  0.004637939  0.000189896
    -0.137438720  4.020772530 -0.743594370     0.000623737  0.249429828  0.003785496
    -0.009233700 -0.157862020 10.403196900     0.017669408  0.018435669  0.096419731

  length of vectors
     7.551972180  4.091263097 10.404398657     0.134735580  0.249459331  0.099743904

  position of ions in fractional coordinates (direct lattice)
     0.953746470  0.002694670  0.005389350
     0.546253530  0.997305330  0.994610650
     0.360785140  0.805639640  0.611279280
     0.139214860  0.194360360  0.388720720
     0.217045230  0.921328440  0.842656890
     0.686401910  0.887846980  0.775693970
     0.282954770  0.078671560  0.157343110
     0.813598090  0.112153020  0.224306030
     0.931373020  0.801386770  0.602773560
     0.568626980  0.198613230  0.397226440
     0.446207950  0.400496450  0.800992880
     0.955232890  0.407270550  0.814541100
     0.053792050  0.599503550  0.199007120
     0.544767110  0.592729450  0.185458900
     0.250000000  0.500000000  0.000000000
     0.750000000  0.500000000  0.000000000
     0.352222900  0.684360760  0.368721530
     0.832408980  0.683927700  0.367855410
     0.147777100  0.315639240  0.631278470
     0.667591020  0.316072300  0.632144590
     0.450514260  0.903270110  0.806540200
     0.952126880  0.903709810  0.807419610
     0.049485740  0.096729890  0.193459800
     0.547873120  0.096290190  0.192580390

  ion indices of the primitive-cell ions
   primitive index   ion index
                 1           1
                 2           2
                 3           3
                 4           4
                 5           5
                 6           6
                 7           7
                 8           8
                 9           9
                10          10
                11          11
                12          12
                13          13
                14          14
                15          15
                16          16
                17          17
                18          18
                19          19
                20          20
                21          21
                22          22
                23          23
                24          24

 KPOINTS: # No comment

Automatic generation of k-mesh.
 Grid dimensions read from file:
 generate k-points for:    3    5    2

 Generating k-lattice:

  Cartesian coordinates                     Fractional coordinates (reciprocal lattice)
     0.044885199  0.001545980  0.000063299     0.333333333  0.000000000  0.000000000
     0.000124747  0.049885966  0.000757099    -0.000000000  0.200000000 -0.000000000
     0.008834704  0.009217834  0.048209865     0.000000000 -0.000000000  0.500000000

  Length of vectors
     0.044911860  0.049891866  0.049871952

  Shift w.r.t. Gamma in fractional coordinates (k-lattice)
     0.000000000  0.000000000  0.000000000

 WARNING: IBZKPT: internal override: KBLOWUP is changed to .FALSE.
      ... skipping the blow-up phase ...

 Subroutine IBZKPT returns following result:

 Found     16 irreducible k-points:

 Following reciprocal coordinates:
            Coordinates               Weight
  0.000000  0.000000  0.000000      1.000000
  0.333333  0.000000  0.000000      2.000000
  0.000000  0.200000  0.000000      2.000000
  0.333333  0.200000  0.000000      2.000000
 -0.333333  0.200000  0.000000      2.000000
  0.000000  0.400000  0.000000      2.000000
  0.333333  0.400000  0.000000      2.000000
 -0.333333  0.400000  0.000000      2.000000
  0.000000  0.000000  0.500000      1.000000
  0.333333  0.000000  0.500000      2.000000
  0.000000  0.200000  0.500000      2.000000
  0.333333  0.200000  0.500000      2.000000
 -0.333333  0.200000  0.500000      2.000000
  0.000000  0.400000  0.500000      2.000000
  0.333333  0.400000  0.500000      2.000000
 -0.333333  0.400000  0.500000      2.000000

 Following cartesian coordinates:
            Coordinates               Weight
  0.000000  0.000000  0.000000      1.000000
  0.044885  0.001546  0.000063      2.000000
  0.000125  0.049886  0.000757      2.000000
  0.045010  0.051432  0.000820      2.000000
 -0.044760  0.048340  0.000694      2.000000
  0.000249  0.099772  0.001514      2.000000
  0.045135  0.101318  0.001577      2.000000
 -0.044636  0.098226  0.001451      2.000000
  0.008835  0.009218  0.048210      1.000000
  0.053720  0.010764  0.048273      2.000000
  0.008959  0.059104  0.048967      2.000000
  0.053845  0.060650  0.049030      2.000000
 -0.035926  0.057558  0.048904      2.000000
  0.009084  0.108990  0.049724      2.000000
  0.053969  0.110536  0.049787      2.000000
 -0.035801  0.107444  0.049661      2.000000

 WARNING: full set of k-points will be restricted to regular points only.

 Subroutine IBZKPT_HF returns following result:

 Found     30 k-points in 1st BZ
 the following     30 k-points will be used (e.g. in the exchange kernel)
 Following reciprocal coordinates:   # in IRBZ
  0.000000  0.000000  0.000000    0.03333333   1 t-inv F
  0.333333  0.000000  0.000000    0.03333333   2 t-inv F
  0.000000  0.200000  0.000000    0.03333333   3 t-inv F
  0.333333  0.200000  0.000000    0.03333333   4 t-inv F
 -0.333333  0.200000  0.000000    0.03333333   5 t-inv F
  0.000000  0.400000  0.000000    0.03333333   6 t-inv F
  0.333333  0.400000  0.000000    0.03333333   7 t-inv F
 -0.333333  0.400000  0.000000    0.03333333   8 t-inv F
  0.000000  0.000000  0.500000    0.03333333   9 t-inv F
  0.333333  0.000000  0.500000    0.03333333  10 t-inv F
  0.000000  0.200000  0.500000    0.03333333  11 t-inv F
  0.333333  0.200000  0.500000    0.03333333  12 t-inv F
 -0.333333  0.200000  0.500000    0.03333333  13 t-inv F
  0.000000  0.400000  0.500000    0.03333333  14 t-inv F
  0.333333  0.400000  0.500000    0.03333333  15 t-inv F
 -0.333333  0.400000  0.500000    0.03333333  16 t-inv F
 -0.333333 -0.000000 -0.000000    0.03333333   2 t-inv F
 -0.000000 -0.200000 -0.000000    0.03333333   3 t-inv F
[...]
     14     -54.7835      1.00000
     15     -54.4697      1.00000
     16     -54.4697      1.00000
     17     -54.3026      1.00000
     18     -54.3026      1.00000
     19     -43.8793      1.00000
     20     -43.8757      1.00000
     21     -43.6128      1.00000
     22     -43.6082      1.00000
     23     -43.3261      1.00000
     24     -43.3241      1.00000
     25     -43.2720      1.00000
     26     -43.2715      1.00000
     27     -16.3305      1.00000
     28     -16.3241      1.00000
     29     -15.1586      1.00000
     30     -15.1542      1.00000
     31      -9.6915      1.00000
     32      -9.1907      1.00000
     33      -9.0972      1.00000
     34      -9.0118      1.00000
     35      -8.9753      1.00000
     36      -8.8044      1.00000
     37      -2.3476      1.00000
     38      -2.0950      1.00000
     39      -1.9192      1.00000
     40      -1.8781      1.00000
     41      -1.8019      1.00000
     42      -1.7486      1.00000
     43      -1.7047      1.00000
     44      -1.5581      1.00000
     45      -1.3080      1.00000
     46      -1.1634      1.00000
     47      -1.1073      1.00000
     48      -1.0821      1.00000
     49      -1.0517      1.00000
     50      -1.0422      1.00000
     51      -0.9098      1.00000
     52      -0.9064      1.00000
     53      -0.8050      1.00000
     54      -0.6519      1.00000
     55      -0.6083      1.00000
     56      -0.5763      1.00000
     57      -0.5578      1.00000
     58      -0.5468      1.00000
     59      -0.5027      1.00000
     60      -0.4997      1.00000
[...]
    106      11.1111      0.00000
    107      11.2551      0.00000
    108      11.3372      0.00000
    109      11.3621      0.00000
    110      11.5079      0.00000
    111      11.6836      0.00000
    112      11.9747      0.00000
    113      12.5388      0.00000
    114      12.6952      0.00000
    115      12.8082      0.00000
    116      12.8520      0.00000
    117      13.1484      0.00000
    118      13.5872      0.00000
    119      14.2949      0.00000
    120      14.7391      0.00000

[...]

 k-point    16 :      -0.3333    0.4000    0.5000
  band No.  band energies     occupation
      1     -56.3793      1.00000
      2     -56.3793      1.00000
      3     -56.3339      1.00000
      4     -56.3339      1.00000
      5     -56.1924      1.00000
      6     -56.1924      1.00000
      7     -54.9197      1.00000
      8     -54.9195      1.00000
      9     -54.8195      1.00000
     10     -54.8195      1.00000
     11     -54.7851      1.00000
     12     -54.7849      1.00000
     13     -54.7831      1.00000
     14     -54.7831      1.00000
     15     -54.4697      1.00000
     16     -54.4697      1.00000
     17     -54.3035      1.00000
     18     -54.3034      1.00000
     19     -43.8778      1.00000
     20     -43.8767      1.00000
     21     -43.6122      1.00000
     22     -43.6081      1.00000
     23     -43.3259      1.00000
     24     -43.3237      1.00000
     25     -43.2717      1.00000
     26     -43.2712      1.00000
     27     -16.1194      1.00000
     28     -16.1190      1.00000
     29     -14.9357      1.00000
     30     -14.9355      1.00000
     31      -9.3041      1.00000
     32      -9.2087      1.00000
     33      -9.0489      1.00000
     34      -8.8965      1.00000
     35      -8.8138      1.00000
     36      -8.7316      1.00000
     37      -3.4703      1.00000
     38      -3.4060      1.00000
     39      -2.7314      1.00000
     40      -2.6307      1.00000
     41      -2.3562      1.00000
     42      -2.2954      1.00000
     43      -2.2574      1.00000
     44      -2.2500      1.00000
     45      -1.6611      1.00000
     46      -1.5861      1.00000
     47      -1.5648      1.00000
     48      -1.4491      1.00000
     49      -1.4037      1.00000
     50      -1.3813      1.00000
     51      -1.2670      1.00000
     52      -1.1800      1.00000
     53      -1.1498      1.00000
     54      -1.0330      1.00000
     55      -0.9720      1.00000
     56      -0.9038      1.00000
     57      -0.8359      1.00000
     58      -0.8189      1.00000
     59      -0.7606      1.00000
     60      -0.5867      1.00000
[...]
    106      11.4328      0.00000
    107      11.8357      0.00000
    108      11.9459      0.00000
    109      12.2790      0.00000
    110      12.3458      0.00000
    111      12.4447      0.00000
    112      12.5861      0.00000
    113      12.8226      0.00000
    114      12.9522      0.00000
    115      13.2940      0.00000
    116      13.3888      0.00000
    117      13.5857      0.00000
    118      13.7947      0.00000
    119      14.0552      0.00000
    120      14.2918      0.00000
 Fermi energy:         4.9138834689

 spin component 2

[...]

 k-point    16 :      -0.3333    0.4000    0.5000
  band No.  band energies     occupation
      1     -49.7339      1.00000
      2     -49.7337      1.00000
      3     -49.6871      1.00000
      4     -49.6869      1.00000
      5     -49.6854      1.00000
      6     -49.6851      1.00000
      7     -49.6213      1.00000
      8     -49.6210      1.00000
      9     -49.6160      1.00000
     10     -49.6160      1.00000
     11     -49.6071      1.00000
     12     -49.6068      1.00000
     13     -49.5142      1.00000
     14     -49.5140      1.00000
     15     -49.3370      1.00000
     16     -49.3368      1.00000
     17     -49.1434      1.00000
     18     -49.1434      1.00000
     19     -43.8701      1.00000
     20     -43.8690      1.00000
     21     -43.6135      1.00000
     22     -43.6094      1.00000
     23     -43.3307      1.00000
     24     -43.3285      1.00000
     25     -43.2726      1.00000
     26     -43.2721      1.00000
     27     -15.6385      1.00000
     28     -15.6379      1.00000
     29     -14.7221      1.00000
     30     -14.7220      1.00000
     31      -9.0129      1.00000
     32      -8.9010      1.00000
     33      -8.7494      1.00000
     34      -8.5748      1.00000
     35      -8.5117      1.00000
     36      -8.4220      1.00000
     37      -2.0918      1.00000
     38      -1.8458      1.00000
     39      -1.4605      1.00000
     40      -1.3048      1.00000
     41      -1.1211      1.00000
     42      -1.0370      1.00000
     43      -0.8078      1.00000
     44      -0.6641      1.00000
     45      -0.3749      1.00000
     46      -0.2096      1.00000
     47       0.0027      1.00000
     48       0.0917      1.00000
     49       0.4170      1.00000
     50       0.5245      1.00000
     51       0.7091      1.00000
     52       0.7450      1.00000
     53       0.8841      1.00000
     54       0.9724      1.00000
     55       1.1305      1.00000
     56       1.2653      1.00000
     57       1.5085      1.00000
     58       1.6240      1.00000
     59       1.7025      1.00000
     60       1.7731      1.00000
[...]
    106      12.5379      0.00000
    107      12.8406      0.00000
    108      12.8597      0.00000
    109      13.1389      0.00000
    110      13.1796      0.00000
    111      13.3326      0.00000
    112      13.4308      0.00000
    113      13.5447      0.00000
    114      13.6133      0.00000
    115      13.8424      0.00000
    116      13.9542      0.00000
    117      14.1363      0.00000
    118      14.2736      0.00000
    119      14.4717      0.00000
    120      14.6226      0.00000

 soft charge-density along one line, spin component           1
         0         1         2         3         4         5         6         7         8         9
 total charge-density along one line

 soft charge-density along one line, spin component           2
         0         1         2         3         4         5         6         7         8         9
 total charge-density along one line

------------------------ aborting loop because EDIFF is reached ----------------------------------------

 total charge

# of ion       s       p       d       tot
    1        2.022   0.068   0.000   2.090
    2        2.022   0.068   0.000   2.090
    3        2.015   0.054   0.000   2.069
    4        2.015   0.054   0.000   2.069
    5        2.025   0.075   0.000   2.100
    6        2.027   0.078   0.000   2.105
    7        2.025   0.075   0.000   2.100
    8        2.027   0.078   0.000   2.105
    9        0.239   6.214   5.890  12.343
   10        0.239   6.214   5.890  12.343
   11        0.242   6.232   5.903  12.376
   12        0.238   6.238   5.914  12.390
   13        0.242   6.232   5.903  12.376
   14        0.238   6.238   5.914  12.390
   15        1.308   2.463   0.000   3.770
   16        1.307   2.462   0.000   3.769
   17        1.308   2.462   0.000   3.770
   18        1.310   2.468   0.000   3.778
   19        1.308   2.462   0.000   3.770
   20        1.310   2.468   0.000   3.778
   21        1.550   3.546   0.000   5.095
   22        1.556   3.530   0.000   5.086
   23        1.550   3.546   0.000   5.095
   24        1.556   3.530   0.000   5.086
tot         31.677  66.853  35.412 133.941

 magnetization (x)

[...]

  FORCE on cell =-STRESS in cart. coord.  units (eV):
  Direction    XX          YY          ZZ          XY          YZ          ZX
  Alpha Z   456.74369   456.74369   456.74369
  Ewald   -4646.68082 -2429.72630 -4390.76465   -46.15658  -369.68955   173.11022
  Hartree  1621.81943  3326.06934  1622.67367   -38.44610  -322.20610   118.82246
  E(xc)    -682.37071  -681.57450  -681.73518    -0.00969    -0.02767     0.09227
  Local     302.30545 -3563.65855   137.00787    84.44575   699.10407  -283.56241
  n-local   593.46954   603.42976   593.48496    -0.11215    -1.85696     1.36002
  augment   854.07350   826.39201   797.58805    -0.14175    -5.68322    -5.15385
  Kinetic  2210.87458  2160.09549  2152.08878     0.37977    -1.76472    -6.95781
  Fock     -710.37463  -698.17293  -687.29915     0.06397     2.15873     2.31749
  Total      -0.13933    -0.40129    -0.21331     0.01387     0.03698     0.02992
  in kB      -0.72066    -2.07556    -1.10329     0.07173     0.19129     0.15474

 VOLUME and BASIS-vectors are now :
  energy-cutoff  :      520.00
  volume of cell :      309.76
      direct lattice vectors                 reciprocal lattice vectors
     7.428201260  0.002089940 -1.361655420     0.134655598  0.004637939  0.000189896
    -0.137438720  4.020772530 -0.743594370     0.000623737  0.249429828  0.003785496
    -0.009233700 -0.157862020 10.403196900     0.017669408  0.018435669  0.096419731

  length of vectors
     7.551972180  4.091263097 10.404398657     0.134735580  0.249459331  0.099743904

 FORCES acting on ions:
    Electron-Ion                     Ewald-Force                    Non-Local-Force
   0.192E+02 -.713E+00 -.740E+01   -.191E+02 0.937E+00 0.860E+01   -.915E-01 -.228E+00 -.121E+01
   -.192E+02 0.713E+00 0.740E+01   0.191E+02 -.937E+00 -.860E+01   0.915E-01 0.228E+00 0.121E+01
   0.225E+02 0.180E+02 0.930E+02   -.224E+02 -.178E+02 -.919E+02   -.140E+00 -.225E+00 -.119E+01
   -.225E+02 -.180E+02 -.930E+02   0.224E+02 0.178E+02 0.919E+02   0.140E+00 0.225E+00 0.119E+01
   -.175E+02 -.470E+01 -.222E+02   0.187E+02 0.465E+01 0.217E+02   -.123E+01 0.594E-01 0.549E+00
   0.292E+02 0.390E+01 0.157E+02   -.305E+02 -.392E+01 -.156E+02   0.133E+01 0.238E-01 -.117E+00
   0.175E+02 0.470E+01 0.222E+02   -.187E+02 -.465E+01 -.217E+02   0.123E+01 -.594E-01 -.549E+00
   -.292E+02 -.390E+01 -.157E+02   0.305E+02 0.392E+01 0.156E+02   -.133E+01 -.238E-01 0.117E+00
   -.385E+02 0.753E+02 0.414E+03   0.401E+02 -.753E+02 -.415E+03   -.142E+01 0.191E-01 0.365E+00
   0.385E+02 -.753E+02 -.414E+03   -.401E+02 0.753E+02 0.415E+03   0.142E+01 -.191E-01 -.365E+00
   0.170E+02 0.250E+02 0.132E+03   -.178E+02 -.253E+02 -.134E+03   0.661E+00 0.275E+00 0.137E+01
   -.416E+01 -.208E+02 -.112E+03   0.428E+01 0.205E+02 0.110E+03   -.116E+00 0.238E+00 0.131E+01
   -.170E+02 -.250E+02 -.132E+03   0.178E+02 0.253E+02 0.134E+03   -.661E+00 -.275E+00 -.137E+01
   0.416E+01 0.208E+02 0.112E+03   -.428E+01 -.205E+02 -.110E+03   0.116E+00 -.238E+00 -.131E+01
   0.276E-05 -.242E-06 0.724E-06   0.355E-13 -.107E-13 -.568E-13   -.169E-21 0.189E-21 0.577E-21
   0.190E-05 0.794E-06 0.367E-06   -.639E-13 -.302E-13 0.284E-13   -.836E-22 -.111E-22 -.715E-21
   0.931E+02 -.353E+02 -.208E+03   -.936E+02 0.355E+02 0.209E+03   0.511E+00 -.148E+00 -.897E+00
   -.105E+03 -.127E+02 -.492E+02   0.106E+03 0.127E+02 0.492E+02   -.289E+00 -.128E-01 -.157E-01
   -.931E+02 0.353E+02 0.208E+03   0.936E+02 -.355E+02 -.209E+03   -.511E+00 0.148E+00 0.897E+00
   0.105E+03 0.127E+02 0.492E+02   -.106E+03 -.127E+02 -.492E+02   0.289E+00 0.128E-01 0.157E-01
   0.440E+01 0.915E+01 0.487E+02   -.440E+01 -.920E+01 -.489E+02   0.836E-02 0.446E-01 0.240E+00
   -.436E+01 -.217E+02 -.117E+03   0.462E+01 0.225E+02 0.121E+03   -.231E+00 -.676E+00 -.361E+01
   -.440E+01 -.915E+01 -.487E+02   0.440E+01 0.920E+01 0.489E+02   -.836E-02 -.446E-01 -.240E+00
   0.436E+01 0.217E+02 0.117E+03   -.462E+01 -.225E+02 -.121E+03   0.231E+00 0.676E+00 0.361E+01
   -.111E-04 0.580E-06 -.184E-06   0.213E-13 -.355E-14 0.128E-12   -.833E-16 0.222E-15 -.444E-15

 POSITION                                       TOTAL-FORCE (eV/Angst)
      7.08420      0.01198     -1.24461        -0.016415      0.000509      0.005787
      3.91143      3.85407      8.86173         0.016415     -0.000509     -0.005787
      2.56361      3.14355      5.26892        -0.015260     -0.000237      0.001541
      1.00381      0.72041      3.70985         0.015260      0.000237     -0.001541
      1.47785      3.57188      7.78569        -0.006742      0.002470      0.014601
      4.96954      3.44881      6.47486        -0.011579     -0.000474     -0.000424
      2.08958      0.29207      1.19308         0.006742     -0.002470     -0.014601
      6.02609      0.41723      1.14226         0.011579      0.000474      0.000424
      6.80272      3.12899      4.40666         0.013739      0.005123      0.025162
      4.19291      0.73706      3.21046        -0.013739     -0.005123     -0.025162
      3.25208      1.48479      7.42750        -0.010152      0.001594      0.010496
      7.03217      1.51095      6.87029        -0.008362     -0.001603     -0.007125
      0.31535      2.37916      1.55128         0.010152     -0.001594     -0.010496
      3.96346      2.35509      0.74683         0.008362      0.001603      0.007125
      1.78833      2.01091     -0.71221        -0.000000      0.000000      0.000000
      5.50243      2.01195     -1.39304        -0.000000      0.000000      0.000000
      2.51892      2.69419      2.84739         0.003923      0.000495      0.001952
      6.08591      2.69359      2.18485         0.006398     -0.003830     -0.021893
      1.04851      1.16977      6.13139        -0.003923     -0.000495     -0.001952
      4.90972      1.17246      5.43227        -0.006398      0.003830      0.021893
      3.21492      3.50546      7.10548        -0.003656      0.000495      0.003352
      6.94093      3.50814      6.43128        -0.007061     -0.003961     -0.020110
      0.35251      0.35849      1.87329         0.003656     -0.000495     -0.003352
      4.05470      0.35790      1.18584         0.007061      0.003961      0.020110
    total drift:                               -0.000011      0.000001     -0.000000

  FREE ENERGIE OF THE ION-ELECTRON SYSTEM (eV)
  free  energy   TOTEN  =      -177.23020717 eV

  energy  without entropy=     -177.23020717  energy(sigma->0) =     -177.23020717

 writing wavefunctions

 total charge

[...]

 magnetization (x)

# of ion       s       p       d       tot
    1       -0.000  -0.000   0.000  -0.000
    2       -0.000  -0.000   0.000  -0.000
    3        0.001   0.002   0.000   0.003
    4        0.001   0.002   0.000   0.003
    5       -0.001  -0.001   0.000  -0.002
    6       -0.000  -0.000   0.000  -0.000
    7       -0.001  -0.001   0.000  -0.002
    8       -0.000  -0.000   0.000  -0.000
    9        0.031   0.022   3.573   3.625
   10        0.031   0.022   3.573   3.625
   11        0.032   0.025   3.572   3.629
   12        0.030   0.024   3.586   3.639
   13        0.032   0.025   3.572   3.629
   14        0.030   0.024   3.586   3.639
   15        0.018   0.084   0.000   0.102
   16        0.017   0.079   0.000   0.096
   17        0.019   0.107   0.000   0.125
   18        0.019   0.107   0.000   0.126
   19        0.019   0.107   0.000   0.125
   20        0.019   0.107   0.000   0.126
   21        0.009   0.061   0.000   0.070
   22        0.015   0.149   0.000   0.164
   23        0.009   0.061   0.000   0.070
   24        0.015   0.149   0.000   0.164
tot          0.342   1.154  21.461  22.957