 vasp.6.2.0 18Jan21 (build Jan 29 2021 15:03:46) complex

 executed on             LinuxIFC date 2021.03.30  03:19:22

 INCAR:
   AEXX = 0.25
   ALGO = all
   EDIFF = 1.2e-05
   EDIFFG = -0.03
   ENCUT = 520
   GGA = pe
   HFSCREEN = 0.207
   IBRION = 2
   ISIF = 3
   ISMEAR = 0
   ISPIN = 2
   KPAR = 34
   LASPH = .TRUE.
   LHFCALC = .TRUE.
   LMAXFOCK = 4
   LORBIT = 11
   LREAL = .FALSE.
   LVHAR = .TRUE.
   LWAVE = .TRUE.
   MAGMOM = 0.6 0.6 0.6 0.6 0.6 0.6 0.6 0.6 0.6 5 5 5
   NCORE = 1
   NEDOS = 2000
   NELM = 200
   NELMIN = 4
   NSW = 60
   NWRITE = 1
   PREC = accurate
   PRECFOCK = fast
   SIGMA = 0.05
   TIME = 0.3

 POTCAR:    PAW_PBE Li_sv 10Sep2004
 POTCAR:    PAW_PBE O 08Apr2002
 POTCAR:    PAW_PBE S 06Sep2000
 POTCAR:    PAW_PBE Fe_pv 02Aug2007
|           W    W    AA    RRRRR   N    N  II  N    N   GGGG   !!!           |
|           W    W   A  A   R    R  NN   N  II  NN   N  G    G  !!!           |
|           W    W  A    A  R    R  N N  N  II  N N  N  G       !!!           |
|           W WW W  AAAAAA  RRRRR   N  N N  II  N  N N  G  GGG   !            |
|           WW  WW  A    A  R   R   N   NN  II  N   NN  G    G                |
|           W    W  A    A  R    R  N    N  II  N    N   GGGG   !!!           |
|     For optimal performance we recommend to set                             |
|       NCORE = 2 up to number-of-cores-per-socket                            |
|     This setting can greatly improve the performance of VASP for DFT.       |
|     The default, NCORE=1 might be grossly inefficient on modern             |
|     multi-core architectures or massively parallel machines. Do your        |
|     Unfortunately you need to use the default for GW and RPA                |
|     calculations (for HF NCORE is supported but not extensively tested      |
|     yet).                                                                   |

 POTCAR:    PAW_PBE Li_sv 10Sep2004

 POTCAR:    PAW_PBE O 08Apr2002

 POTCAR:    PAW_PBE S 06Sep2000

 POTCAR:    PAW_PBE Fe_pv 02Aug2007

  PAW_PBE Li_sv 10Sep2004               :
  PAW_PBE O 08Apr2002                   :
  PAW_PBE S 06Sep2000                   :
  PAW_PBE Fe_pv 02Aug2007               :

 POSCAR: # Compound: Li4OS4Fe3. Old comment: LFSO
  positions in direct lattice
 exchange correlation table for  LEXCH =        8
   RHO(1)=    0.500       N(1)  =     2000
   RHO(2)=  100.500       N(2)  =     4000

 ion  position               nearest neighbor table
   1  0.860  0.230  0.370-   8 2.40   6 2.46   6 2.46   7 2.51
   2  0.140  0.630  0.770-   9 2.40   7 2.46   7 2.46   6 2.51
   3  0.581  0.801  0.941-   8 2.37   8 2.37   7 2.46   6 2.55
   4  0.419  0.059  0.199-   9 2.37   9 2.37   6 2.46   7 2.55
   5  0.000  0.431  0.569-  12 2.04  12 2.04  11 2.06  10 2.06
   6  0.785  0.862  0.001-   1 2.46   4 2.46   1 2.46   2 2.51   3 2.55  10 2.70  10 2.70  12 2.74

   7  0.215  0.999  0.138-   2 2.46   3 2.46   2 2.46   1 2.51   4 2.55  11 2.70  11 2.70  12 2.74

   8  0.656  0.183  0.322-   3 2.37   3 2.37   1 2.40  11 2.45  12 2.58  10 2.74  10 2.75
   9  0.344  0.678  0.817-   4 2.37   4 2.37   2 2.40  10 2.45  12 2.58  11 2.74  11 2.75
  10  0.707  0.526  0.663-   5 2.06   9 2.45   6 2.70   6 2.70   8 2.74   8 2.75
  11  0.293  0.337  0.474-   5 2.06   8 2.45   7 2.70   7 2.70   9 2.74   9 2.75
  12  0.000  0.931  0.069-   5 2.04   5 2.04   8 2.58   9 2.58   7 2.74   6 2.74

  LATTYP: Found a base centered monoclinic cell.
 ALAT       =    13.3815327503
 B/A-ratio  =     0.3044765730
 C/A-ratio  =     0.6993390546
 COS(beta)  =    -0.6905281149

  Lattice vectors:

 A1 = (  -4.5360156500,   5.3236232300,   0.0078334400)
 A2 = (  -4.5360156500,   3.7589582400,   3.7697823000)
 A3 = (   9.3568367400,  -0.1490133400,  -0.0619774400)

Analysis of symmetry for initial positions (statically):
 Subroutine PRICEL returns:
 Original cell was already a primitive cell.

 Routine SETGRP: Setting up the symmetry group for a
 base centered monoclinic supercell.

 Subroutine GETGRP returns: Found  2 space group operations
 (whereof  2 operations were pure point group operations)
 out of a pool of  4 trial point group operations.

The static configuration has the point symmetry C_2 .

Analysis of symmetry for dynamics (positions and initial velocities):
 Subroutine PRICEL returns:
 Original cell was already a primitive cell.

[...]

The dynamic configuration has the point symmetry C_2 .

Analysis of structural, dynamic, and magnetic symmetry:
 Subroutine PRICEL returns:
 Original cell was already a primitive cell.

 Routine SETGRP: Setting up the symmetry group for a
 base centered monoclinic supercell.

 Subroutine GETGRP returns: Found  2 space group operations
 (whereof  2 operations were pure point group operations)
 out of a pool of  4 trial point group operations.

The overall configuration has the point symmetry C_2 .

 Subroutine INISYM returns: Found  2 space group operations
 (whereof  2 operations are pure point group operations),
 and found     1 'primitive' translations

                                     Primitive cell

  volume of cell :     184.5232

  direct lattice vectors                    reciprocal lattice vectors
     9.356836740 -0.149013340 -0.061977440     0.105037725 -0.098284006 -0.040878159
     4.820821090  5.174609890 -0.054144000     0.001781766  0.189635238 -0.186946822
     4.820821090  3.609944900  3.707804860     0.001781766  0.001126332  0.266288131

  length of vectors
     9.358228463  7.072470224  7.072470222     0.149544955  0.266296474  0.266296474

  position of ions in fractional coordinates (direct lattice)
     0.859881230  0.230283730  0.370326170
     0.140118770  0.629673830  0.769716270
     0.581215220  0.801294150  0.940530630
     0.418784780  0.059469370  0.198705850
     1.000000000  0.431262740  0.568737260
     0.784703770  0.862284600  0.001358540
     0.215296230  0.998641460  0.137715400
     0.655694490  0.183398570  0.322377680
     0.344305510  0.677622320  0.816601430
     0.707455450  0.525762310  0.662840890
     0.292544550  0.337159110  0.474237690
     1.000000000  0.931360800  0.068639200

  ion indices of the primitive-cell ions
   primitive index   ion index
                 1           1
                 2           2
                 3           3
                 4           4
                 5           5
                 6           6
                 7           7
                 8           8
                 9           9
                10          10
                11          11
                12          12

 KPOINTS: # No comment

Automatic generation of k-mesh.
 Grid dimensions read from file:
 generate k-points for:    3    6    6

 Generating k-lattice:

  Cartesian coordinates                     Fractional coordinates (reciprocal lattice)
     0.035012575 -0.032761335 -0.013626053     0.333333333 -0.000000000 -0.000000000
     0.000296961  0.031605873 -0.031157804     0.000000000  0.166666667 -0.000000000
     0.000296961  0.000187722  0.044381355    -0.000000000  0.000000000  0.166666667

  Length of vectors
     0.049848318  0.044382746  0.044382746

  Shift w.r.t. Gamma in fractional coordinates (k-lattice)
     0.000000000  0.000000000  0.000000000

 Subroutine IBZKPT returns following result:

 Found     34 irreducible k-points:

 Following reciprocal coordinates:
            Coordinates               Weight
  0.000000  0.000000  0.000000      1.000000
  0.333333 -0.000000  0.000000      2.000000
 -0.000000  0.166667 -0.000000      4.000000
  0.333333  0.166667 -0.000000      4.000000
 -0.333333  0.166667 -0.000000      4.000000
  0.000000  0.333333 -0.000000      4.000000
  0.333333  0.333333 -0.000000      4.000000
 -0.333333  0.333333 -0.000000      4.000000
  0.000000  0.500000  0.000000      2.000000
  0.333333  0.500000  0.000000      4.000000
  0.000000  0.166667  0.166667      2.000000
  0.333333  0.166667  0.166667      2.000000
 -0.333333  0.166667  0.166667      2.000000
  0.000000  0.333333  0.166667      4.000000
  0.333333  0.333333  0.166667      4.000000
 -0.333333  0.333333  0.166667      4.000000
  0.000000  0.500000  0.166667      4.000000
  0.333333  0.500000  0.166667      4.000000
 -0.333333  0.500000  0.166667      4.000000
 -0.000000 -0.333333  0.166667      4.000000
  0.333333 -0.333333  0.166667      4.000000
 -0.333333 -0.333333  0.166667      4.000000
 -0.000000 -0.166667  0.166667      2.000000
  0.333333 -0.166667  0.166667      4.000000
  0.000000  0.333333  0.333333      2.000000
  0.333333  0.333333  0.333333      2.000000
 -0.333333  0.333333  0.333333      2.000000
  0.000000  0.500000  0.333333      4.000000
  0.333333  0.500000  0.333333      4.000000
 -0.333333  0.500000  0.333333      4.000000
 -0.000000 -0.333333  0.333333      2.000000
  0.333333 -0.333333  0.333333      4.000000
  0.000000  0.500000  0.500000      1.000000
  0.333333  0.500000  0.500000      2.000000

 Following cartesian coordinates:
            Coordinates               Weight
  0.000000  0.000000  0.000000      1.000000
  0.035013 -0.032761 -0.013626      2.000000
  0.000297  0.031606 -0.031158      4.000000
  0.035310 -0.001155 -0.044784      4.000000
 -0.034716  0.064367 -0.017532      4.000000
  0.000594  0.063212 -0.062316      4.000000
  0.035606  0.030450 -0.075942      4.000000
 -0.034419  0.095973 -0.048690      4.000000
  0.000891  0.094818 -0.093473      2.000000
  0.035903  0.062056 -0.107099      4.000000
  0.000594  0.031794  0.013224      2.000000
  0.035606 -0.000968 -0.000403      2.000000
 -0.034419  0.064555  0.026850      2.000000
  0.000891  0.063399 -0.017934      4.000000
  0.035903  0.030638 -0.031560      4.000000
 -0.034122  0.096161 -0.004308      4.000000
  0.001188  0.095005 -0.049092      4.000000
  0.036200  0.062244 -0.062718      4.000000
 -0.033825  0.127767 -0.035466      4.000000
 -0.000297 -0.063024  0.106697      4.000000
  0.034716 -0.095785  0.093071      4.000000
 -0.035310 -0.030263  0.120323      4.000000
  0.000000 -0.031418  0.075539      2.000000
  0.035013 -0.064179  0.061913      4.000000
  0.001188  0.063587  0.026447      2.000000
  0.036200  0.030826  0.012821      2.000000
 -0.033825  0.096349  0.040073      2.000000
  0.001485  0.095193 -0.004711      4.000000
  0.036497  0.062432 -0.018337      4.000000
 -0.033528  0.127954  0.008915      4.000000
  0.000000 -0.062836  0.151078      2.000000
  0.035013 -0.095598  0.137452      4.000000
  0.001782  0.095381  0.039671      1.000000
  0.036794  0.062619  0.026045      2.000000

 Subroutine IBZKPT_HF returns following result:

 Found    108 k-points in 1st BZ
 the following    108 k-points will be used (e.g. in the exchange kernel)
 Following reciprocal coordinates:   # in IRBZ
  0.000000  0.000000  0.000000    0.00925926   1 t-inv F
  0.333333 -0.000000  0.000000    0.00925926   2 t-inv F
 -0.000000  0.166667 -0.000000    0.00925926   3 t-inv F
  0.333333  0.166667 -0.000000    0.00925926   4 t-inv F
 -0.333333  0.166667 -0.000000    0.00925926   5 t-inv F
  0.000000  0.333333 -0.000000    0.00925926   6 t-inv F
  0.333333  0.333333 -0.000000    0.00925926   7 t-inv F
[...]
  n-local   388.98796   390.12608   389.29614    -0.24122     0.75354     0.06030
  augment   383.11210   396.86132   391.11591    10.97388     2.88958     4.56479
  Kinetic  1023.23185  1037.48074  1027.50122    15.97731     5.04878     6.97586
  Fock     -336.83311  -342.26964  -340.07725    -4.65635    -1.09705    -1.91551
  Total      -2.53551    -2.20519    -2.66763     0.65924     0.23257     0.27516
  in kB     -22.01532   -19.14719   -23.16249     5.72403     2.01936     2.38919

 VOLUME and BASIS-vectors are now :
  energy-cutoff  :      520.00
  volume of cell :      184.52
      direct lattice vectors                 reciprocal lattice vectors
     9.356836740 -0.149013340 -0.061977440     0.105037725 -0.098284006 -0.040878159
     4.820821090  5.174609890 -0.054144000     0.001781766  0.189635238 -0.186946822
     4.820821090  3.609944900  3.707804860     0.001781766  0.001126332  0.266288131

[...]

 FORCES acting on ions:
    Electron-Ion                     Ewald-Force                    Non-Local-Force
   -.585E+01 -.121E+02 -.501E+01   0.535E+01 0.122E+02 0.504E+01   0.523E+00 -.477E-01 -.271E-01
   0.585E+01 0.121E+02 0.507E+01   -.535E+01 -.122E+02 -.509E+01   -.523E+00 0.529E-01 0.147E-01
   -.716E+02 -.494E+02 -.205E+02   0.712E+02 0.491E+02 0.203E+02   0.427E+00 0.342E+00 0.140E+00
   0.716E+02 0.494E+02 0.206E+02   -.712E+02 -.490E+02 -.205E+02   -.427E+00 -.340E+00 -.144E+00
   -.365E-05 0.278E-01 -.668E-01   -.574E-10 -.187E-01 0.449E-01   -.332E-18 -.983E-02 0.236E-01
   0.188E+03 0.133E+03 0.555E+02   -.189E+03 -.133E+03 -.558E+02   0.675E+00 0.637E+00 0.270E+00
   -.188E+03 -.133E+03 -.549E+02   0.189E+03 0.133E+03 0.551E+02   -.675E+00 -.641E+00 -.261E+00
   -.150E+03 -.155E+03 -.645E+02   0.151E+03 0.156E+03 0.648E+02   -.864E+00 -.731E+00 -.307E+00
   0.150E+03 0.155E+03 0.647E+02   -.151E+03 -.156E+03 -.651E+02   0.864E+00 0.733E+00 0.302E+00
   0.400E+03 -.225E+02 -.102E+02   -.398E+03 0.221E+02 0.995E+01   -.115E+01 0.351E+00 0.198E+00
   -.400E+03 0.231E+02 0.878E+01   0.398E+03 -.226E+02 -.863E+01   0.115E+01 -.387E+00 -.109E+00
   0.195E-04 -.115E+00 0.277E+00   -.995E-11 0.120E+00 -.288E+00   0.423E-20 -.478E-02 0.115E-01
   0.298E-04 0.525E-01 -.126E+00   0.569E-13 -.423E-13 -.248E-13   0.423E-20 -.471E-01 0.113E+00

 POSITION                                       TOTAL-FORCE (eV/Angst)
     10.94120      2.40035      1.30734         0.021808     -0.000536     -0.004791
      8.05728      6.01607      2.81118        -0.021808      0.003776     -0.002998
     13.83536      7.45504      3.40790         0.015516     -0.002378     -0.003642
      5.16312      0.96264      0.70759        -0.015516      0.004259     -0.000881
      4.82082      4.28473      2.08542        -0.000000     -0.002158      0.005188
     11.50581      4.34996     -0.09028         0.087509      0.094484      0.039588
      7.49266      5.63264      0.44321        -0.087509     -0.094690     -0.039093
      8.57348      2.01507      1.14475        -0.084510     -0.031593     -0.013982
     10.42500      6.40301      2.96977         0.084510      0.032190      0.012547
     12.34959      5.00801      2.38537         0.132194     -0.024824     -0.006229
      6.64889      3.41305      1.72199        -0.132194      0.021919      0.013213
      4.82082      5.06721      0.20407        -0.000000     -0.000449      0.001080
    total drift:                                0.000030     -0.000021     -0.000020

  FREE ENERGIE OF THE ION-ELECTRON SYSTEM (eV)
  free  energy   TOTEN  =       -84.96150952 eV

  energy  without entropy=      -84.96150952  energy(sigma->0) =      -84.96150952

 writing wavefunctions

[...]

  free energy =  -0.840633607881E+02  energy without entropy=  -0.840633607881E+02

[...]

 d Force = 0.2249261E-02[ 0.157E-03, 0.434E-02]  d Energy = 0.3768949E-01-0.354E-01
 d Force =-0.9952210E+01[-0.101E+02,-0.978E+01]  d Ewald  = 0.2848240E+02-0.384E+02

 Steepest descent step on ions:
 trial-energy change:   -0.037689  1 .order   -0.037332   -0.082932    0.008268
  (g-gl).g = 0.829E-01      g.g   = 0.829E-01  gl.gl    = 0.000E+00
 g(Force)  = 0.438E-02   g(Stress)= 0.786E-01 ortho     = 0.000E+00
 gamma     =   0.00000
 trial     =   1.00000
 opt step  =   0.91125  (harmonic =   0.90934) maximal distance =0.00581136
 next E    =   -84.999566   (d E  =  -0.03806)

[...]

 d Force =-0.2610889E-04[-0.386E-04,-0.136E-04]  d Energy = 0.4008528E-03-0.427E-03
 d Force = 0.9062775E+00[ 0.905E+00, 0.908E+00]  d Ewald  =-0.2522397E+01 0.343E+01

[...]

 Conjugate gradient step on ions:
 trial-energy change:   -0.000778  1 .order   -0.000776   -0.000941   -0.000611
  (g-gl).g = 0.825E-03      g.g   = 0.957E-03  gl.gl    = 0.829E-01
 g(Force)  = 0.892E-03   g(Stress)= 0.651E-04 ortho     = 0.132E-03
 gamma     =   0.00995
 trial     =   0.98225
 opt step  =   2.79731  (harmonic =   2.79731) maximal distance =0.00659979
 next E    =   -85.000940   (d E  =  -0.00134)

[...]

 d Force = 0.6444894E-03[ 0.184E-03, 0.111E-02]  d Energy = 0.6194367E-03 0.251E-04
 d Force =-0.1004130E+01[-0.102E+01,-0.988E+00]  d Ewald  = 0.1742733E+01-0.275E+01

[...]

 d Force = 0.4156138E-03[ 0.362E-03, 0.469E-03]  d Energy = 0.4980526E-03-0.824E-04
 d Force =-0.1118095E+01[-0.112E+01,-0.112E+01]  d Ewald  =-0.2445833E+01 0.133E+01

 Conjugate gradient step on ions:
 trial-energy change:   -0.000498  1 .order   -0.000473   -0.000543   -0.000403
  (g-gl).g = 0.360E-03      g.g   = 0.392E-03  gl.gl    = 0.957E-03
 g(Force)  = 0.311E-03   g(Stress)= 0.818E-04 ortho     = 0.304E-04
 gamma     =   0.37568
 trial     =   1.34526
 opt step  =   5.22684  (harmonic =   5.22684) maximal distance =0.01035417
 next E    =   -85.002052   (d E  =  -0.00106)

 writing wavefunctions

[...]

 eigenvalue-minimisations  :     0
 total energy-change (2. order) : 0.1637831E+00  (-0.9601762E-01)
 number of electron      84.0000006 magnetization      12.0000002
 augmentation part       26.7719850 magnetization       7.9987289

[...]

--------------------------------------- Iteration      7(  11)  ---------------------------------------

 eigenvalue-minimisations  :     0
 total energy-change (2. order) :-0.9723411E-05  (-0.5179244E-05)
 number of electron      84.0000006 magnetization      12.0000002
 augmentation part       26.7564465 magnetization       8.0017677

  free energy =  -0.850022453363E+02  energy without entropy=  -0.850022453363E+02

  average scaling for gradient   0.8372

 average (electrostatic) potential at core
  the test charge radii are     0.7079  0.7215  0.9698  0.9500
  (the norm of the test charge is              1.0000)
       1 -54.2857       2 -54.2857       3 -54.2418       4 -54.2418       5 -64.3488
       6 -82.6198       7 -82.6198       8 -82.6686       9 -82.6686      10 -72.2219
      11 -72.2219      12 -72.0031

 E-fermi :   3.8161     XC(G=0):  -8.1491     alpha+bet :-11.6375

 Fermi energy:         3.8160837808

[...]

 k-point    34 :       0.3333    0.5000    0.5000
  band No.  band energies     occupation
      1     -56.8931      1.00000
      2     -56.8925      1.00000
      3     -56.6648      1.00000
      4     -55.3874      1.00000
      5     -55.3868      1.00000
      6     -55.3315      1.00000
      7     -55.3310      1.00000
      8     -55.1958      1.00000
      9     -55.1607      1.00000
     10     -44.5112      1.00000
     11     -44.4918      1.00000
     12     -44.4660      1.00000
     13     -44.4512      1.00000
     14     -16.7841      1.00000
     15     -10.2160      1.00000
     16      -9.6956      1.00000
     17      -9.4696      1.00000
     18      -9.3493      1.00000
     19      -3.4296      1.00000
     20      -2.3754      1.00000
     21      -2.3141      1.00000
     22      -2.0497      1.00000
     23      -1.9679      1.00000
     24      -1.7633      1.00000
     25      -1.6212      1.00000
     26      -1.4004      1.00000
     27      -1.3180      1.00000
     28      -1.1967      1.00000
     29      -0.9852      1.00000
     30      -0.8842      1.00000
     31      -0.7995      1.00000
     32      -0.7592      1.00000
     33      -0.1578      1.00000
     34      -0.0357      1.00000
     35       0.2484      1.00000
     36       0.3559      1.00000
     37       0.7133      1.00000
     38       0.8364      1.00000
     39       1.0296      1.00000
     40       1.1655      1.00000
     41       1.3662      1.00000
     42       1.7840      1.00000
     43       1.8090      1.00000
     44       2.2535      1.00000
     45       2.7913      1.00000
     46       2.7968      1.00000
     47       3.1054      1.00000
     48       3.2474      1.00000
     49       8.3985      0.00000
     50       8.7180      0.00000
     51       9.2692      0.00000
     52       9.4117      0.00000
     53       9.6220      0.00000
     54      10.2415      0.00000
     55      10.2657      0.00000
     56      10.5898      0.00000
     57      10.6141      0.00000
     58      11.5643      0.00000
     59      11.6989      0.00000
     60      12.4695      0.00000
 Fermi energy:         3.8160837808

 spin component 2

[...]

 k-point    34 :       0.3333    0.5000    0.5000
  band No.  band energies     occupation
      1     -50.2362      1.00000
      2     -50.2335      1.00000
      3     -50.2014      1.00000
      4     -50.1990      1.00000
      5     -50.1882      1.00000
      6     -50.1864      1.00000
      7     -50.0154      1.00000
      8     -49.9765      1.00000
      9     -49.9589      1.00000
     10     -44.4977      1.00000
     11     -44.4786      1.00000
     12     -44.4527      1.00000
     13     -44.4380      1.00000
     14     -16.0859      1.00000
     15      -9.9577      1.00000
     16      -9.4924      1.00000
     17      -9.1956      1.00000
     18      -9.1284      1.00000
     19      -1.9371      1.00000
     20      -0.9384      1.00000
     21      -0.8544      1.00000
     22      -0.7074      1.00000
     23      -0.1726      1.00000
     24       0.2423      1.00000
     25       0.8780      1.00000
     26       0.9216      1.00000
     27       1.1652      1.00000
     28       1.6018      1.00000
     29       1.6177      1.00000
     30       1.7933      1.00000
     31       1.8816      1.00000
     32       2.0506      1.00000
     33       2.1476      1.00000
     34       2.9606      1.00000
     35       2.9891      1.00000
     36       3.3982      1.00000
     37       5.7086      0.00000
     38       6.8886      0.00000
     39       7.1582      0.00000
     40       7.1798      0.00000
     41       7.5417      0.00000
     42       7.6685      0.00000
     43       7.9842      0.00000
     44       8.1511      0.00000
     45       8.2010      0.00000
     46       8.4592      0.00000
     47       8.4959      0.00000
     48       8.5769      0.00000
     49       8.8865      0.00000
     50       9.4828      0.00000
     51       9.6509      0.00000
     52       9.9894      0.00000
     53      10.1755      0.00000
     54      10.6092      0.00000
     55      10.9714      0.00000
     56      11.0182      0.00000
     57      11.3058      0.00000
     58      11.9924      0.00000
     59      12.3353      0.00000
     60      12.9850      0.00000

[...]

 soft charge-density along one line, spin component           2
         0         1         2         3         4         5         6         7         8         9
 total charge-density along one line

------------------------ aborting loop because EDIFF is reached ----------------------------------------

[...]

  FORCE on cell =-STRESS in cart. coord.  units (eV):
  Direction    XX          YY          ZZ          XY          YZ          ZX
  Alpha Z   197.85460   197.85460   197.85460
  Ewald   -1927.75730 -2186.29784  -819.24341 -1339.68436  -687.51579  -557.19982
  Hartree   997.03133   856.09754  1994.58926 -1096.04814  -572.56745  -455.86710
  E(xc)    -333.80324  -334.06728  -333.78558    -0.29332    -0.14167    -0.12199
  Local    -395.79215   -19.32184 -2511.07939  2414.41058  1253.14857  1004.19894
  n-local   388.94568   389.97058   389.23906    -0.40056     0.70246     0.00037
  augment   382.93942   396.30171   390.90001    10.84734     2.71672     4.51204
  Kinetic  1027.26789  1041.22354  1031.70143    15.58591     4.80907     6.81658
  Fock     -336.75965  -342.01636  -340.00326    -4.56377    -1.00695    -1.87523
  Total      -0.07341    -0.07298    -0.00965     0.03686    -0.03185     0.01630
  in kB      -0.65481    -0.65099    -0.08607     0.32881    -0.28411     0.14540

 VOLUME and BASIS-vectors are now :
  energy-cutoff  :      520.00
  volume of cell :      179.62
      direct lattice vectors                 reciprocal lattice vectors
     9.270332695 -0.127128960 -0.052875316     0.106275194 -0.099205430 -0.041261396
     4.787394194  5.146269271 -0.042572650     0.001545057  0.191313933 -0.189092967
     4.787394194  3.598169388  3.679548460     0.001545057  0.000787929  0.268991729

  length of vectors
     9.271355124  7.028872101  7.028872099     0.151124575  0.268997320  0.268997320

 FORCES acting on ions:
    Electron-Ion                     Ewald-Force                    Non-Local-Force
   -.577E+01 -.122E+02 -.509E+01   0.525E+01 0.123E+02 0.511E+01   0.531E+00 -.444E-01 -.198E-01
   0.577E+01 0.122E+02 0.510E+01   -.525E+01 -.123E+02 -.512E+01   -.531E+00 0.454E-01 0.176E-01
   -.733E+02 -.510E+02 -.212E+02   0.728E+02 0.507E+02 0.211E+02   0.450E+00 0.351E+00 0.145E+00
   0.733E+02 0.510E+02 0.212E+02   -.728E+02 -.507E+02 -.211E+02   -.450E+00 -.350E+00 -.146E+00
   -.357E-05 0.539E-01 -.130E+00   0.222E-10 -.533E-01 0.128E+00   -.178E-14 -.213E-02 0.512E-02
   0.197E+03 0.138E+03 0.576E+02   -.198E+03 -.139E+03 -.578E+02   0.547E+00 0.485E+00 0.201E+00
   -.197E+03 -.138E+03 -.573E+02   0.198E+03 0.139E+03 0.575E+02   -.547E+00 -.484E+00 -.202E+00
   -.155E+03 -.163E+03 -.676E+02   0.156E+03 0.163E+03 0.679E+02   -.783E+00 -.703E+00 -.294E+00
   0.155E+03 0.163E+03 0.677E+02   -.156E+03 -.163E+03 -.680E+02   0.783E+00 0.704E+00 0.291E+00
   0.412E+03 -.268E+02 -.114E+02   -.411E+03 0.263E+02 0.112E+02   -.128E+01 0.438E+00 0.201E+00
   -.412E+03 0.270E+02 0.109E+02   0.411E+03 -.265E+02 -.107E+02   0.128E+01 -.451E+00 -.168E+00
   -.197E-04 -.102E+00 0.246E+00   -.279E-10 0.100E+00 -.241E+00   0.206E-14 0.246E-02 -.592E-02
   -.119E-04 0.118E-01 -.284E-01   0.569E-13 -.147E-13 -.214E-13   -.838E-14 -.105E-01 0.253E-01

 POSITION                                       TOTAL-FORCE (eV/Angst)
     10.85767      2.41111      1.30651         0.016391      0.010237      0.003327
      7.98745      5.99083      2.79539        -0.016391     -0.009577     -0.004914
     13.74274      7.43490      3.39524         0.009890      0.003136      0.001231
      5.10238      0.96759      0.70536        -0.009890     -0.003084     -0.001356
      4.78739      4.26531      2.07554        -0.000000     -0.001913      0.004599
     11.42274      4.35745     -0.06745        -0.009558     -0.005894     -0.003461
      7.42238      5.59293      0.44641         0.009558      0.006610      0.001739
      8.50506      2.01548      1.14107        -0.016709      0.013341      0.005261
     10.34006      6.38710      2.95931         0.016709     -0.013137     -0.005752
     12.25814      5.00974      2.38523        -0.008550      0.015037      0.006724
      6.58699      3.39370      1.71309         0.008550     -0.015370     -0.005922
      4.78739      5.03930      0.21461         0.000000      0.000614     -0.001475
    total drift:                               -0.000012      0.000700     -0.001691

  FREE ENERGIE OF THE ION-ELECTRON SYSTEM (eV)
  free  energy   TOTEN  =       -85.00224534 eV

  energy  without entropy=      -85.00224534  energy(sigma->0) =      -85.00224534

 d Force = 0.6172736E-03[ 0.189E-03, 0.105E-02]  d Energy = 0.7502388E-03-0.133E-03
 d Force =-0.3222069E+01[-0.322E+01,-0.323E+01]  d Ewald  =-0.7049741E+01 0.383E+01

 reached required accuracy - stopping structural energy minimisation
 writing wavefunctions

 total charge

[...]

 magnetization (x)

# of ion       s       p       d       tot
    1        0.002   0.003   0.000   0.005
    2        0.002   0.003   0.000   0.005
    3        0.002   0.003   0.000   0.005
    4        0.002   0.003   0.000   0.005
    5        0.020   0.214   0.000   0.234
    6        0.013   0.069   0.000   0.083
    7        0.013   0.069   0.000   0.083
    8        0.017   0.087   0.000   0.103
    9        0.017   0.087   0.000   0.103
   10        0.028   0.019   3.574   3.620
   11        0.028   0.019   3.574   3.620
   12        0.028   0.018   3.579   3.626
tot          0.170   0.595  10.726  11.492