 vasp.6.2.0 18Jan21 (build May  3 2021 10:16:23) complex
 executed on        HPECrayEX_GCC date 2021.05.05  07:16:05

 INCAR:
   ALGO = all
   EDIFF = 1e-06
   EDIFFG = -0.02
   ENCUT = 520
   GGA = pe
   IBRION = 3
   IMAGES = 5
   IOPT = 7
   ISIF = 2
   ISMEAR = 0
   ISPIN = 2
   KPAR = 8
   LASPH = .TRUE.
   LCHARG = .TRUE.
   LDAU = .TRUE.
   LDAUJ = 0.0 0.0 0.0 0.0
   LDAUL = 2 -1 -1 -1
   LDAUTYPE = 2
   LDAUU = 4.0 0.0 0.0 0.0
   LMAXMIX = 4
   LORBIT = 10
   LREAL = .FALSE.
   LVHAR = .TRUE.
   LWAVE = .TRUE.
   MAGMOM = 5 5 5 5 5 5 5 5 5 5 5 5 5 5 5 5 5 5 5 5 5 5 5 5 5 5 5 5 5 5 5 5 0.6 0.6 0.6 0.6 0.6 0.6 0.6 0.6 0.6 0.6 0.6 0.6 0.6 0.6 0.6 0.6 0.6 0.6 0.6 0.6 0.6 0.6 0.6 0.6 0.6 0.6 0.6 0.6 0.6 0.6 0.6 0.6 0.6 0.6 0.6 0.6 0.6 0.6 0.6 0.6 0.6 0.6 0.6 0.6 0.6 0.6 0.6 0.6 0.6 0.6 0.6 0.6 0.6 0.6 0.6 0.6 0.6 0.6 0.6 0.6 0.6 0.6 0.6 0.6 0.6 0.6 0.6 0.6 0.6 0.6 0.6 0.6 0.6 0.6 0.6 0.6 0.6 0.6 0.6
   NCORE = 4
   NEDOS = 2000
   NELECT = 828
   NELM = 200
   NELMIN = 4
   NSW = 60
   NWRITE = 1
   POTIM = 0.0
   PREC = accurate
   SIGMA = 0.05
   SPRING = -5

 POTCAR:    PAW_PBE Fe_pv 02Aug2007
 POTCAR:    PAW_PBE Li_sv 10Sep2004
 POTCAR:    PAW_PBE O 08Apr2002
 POTCAR:    PAW_PBE S 06Sep2000
 POTCAR:    PAW_PBE Fe_pv 02Aug2007

 POTCAR:    PAW_PBE Li_sv 10Sep2004

 POTCAR:    PAW_PBE O 08Apr2002

 POTCAR:    PAW_PBE S 06Sep2000

  PAW_PBE Fe_pv 02Aug2007               :
  PAW_PBE Li_sv 10Sep2004               :
  PAW_PBE O 08Apr2002                   :
  PAW_PBE S 06Sep2000                   :

 POSCAR: # Compound: Fe32Li31O16S32. Old comment:
  positions in direct lattice
 exchange correlation table for  LEXCH =        8
   RHO(1)=    0.500       N(1)  =     2000
   RHO(2)=  100.500       N(2)  =     4000

 VTST: version 3.2, (02/03/18)

 CHAIN: initializing optimizer

 OPT: Using FIRE optimizer
 OPT: FIRE, Init
 OPT: FIRE, MAXMOVE       0.20000
 OPT: FIRE, TIMESTEP      0.10000
 OPT: FIRE, FTIMEMAX      1.00000
 OPT: FIRE, FTIMEINC      1.10000
 OPT: FIRE, FTIMEDEC      0.50000
 OPT: FIRE, FALPHADEC     0.99000
 OPT: FIRE, FALPHA        0.10000
 OPT: FIRE, FNMIN         5

 CHAIN: Read ICHAIN            0
 CHAIN: Running the NEB
 NEB:          SPRING     -5.000000
 NEB:          LCLIMB      T
 NEB:     LTANGENTOLD      F
 NEB:           LDNEB      F
 NEB:        LDNEBORG      F
 NEB:        LNEBCELL      F
 NEB:          EFIRST      0.000000
 NEB:           ELAST      0.000000

 POSCAR: # Compound: Fe32Li31O16S32. Old comment:
  positions in direct lattice

 POSCAR: # Compound: Fe32Li31O16S32. Old comment:
  positions in direct lattice

 ion  position               nearest neighbor table
   1  0.974  0.081  0.159-  73 2.04  84 2.42  80 2.71  97 2.72  98 2.72  83 2.74
   2  0.224  0.331  0.160-  68 2.05  85 2.43  80 2.72  98 2.72  99 2.72  81 2.73
   3  0.724  0.330  0.157-  79 2.02  86 2.40  82 2.69  99 2.71  80 2.72  97 2.76
   4  0.975  0.581  0.158-  66 2.04  87 2.41  83 2.71  81 2.72  82 2.73  80 2.73
   5  0.966  0.431  0.346-  70 1.99  80 2.46  86 2.64  87 2.64
   6  0.224  0.670  0.341-  67 2.04  81 2.44  87 2.68  85 2.70 100 2.72 102 2.74
   7  0.724  0.677  0.344-  72 2.00  82 2.45 101 2.65 100 2.72  87 2.75
   8  0.974  0.922  0.341-  77 2.04  83 2.44  84 2.67  87 2.72 102 2.73 101 2.73
   9  0.974  0.081  0.659-  77 2.04  92 2.44  88 2.67  91 2.72 106 2.72 105 2.73
  10  0.224  0.331  0.659-  64 2.04  93 2.44  88 2.71  89 2.72 107 2.72 106 2.72
  11  0.725  0.328  0.659-  75 2.05  94 2.45  90 2.62 105 2.71  88 2.71 107 2.74
  12  0.966  0.586  0.654-  70 1.99  95 2.46  90 2.64  91 2.64
  13  0.974  0.422  0.841-  66 2.04  88 2.42  95 2.71  94 2.72  93 2.72  92 2.74
  14  0.224  0.670  0.840-  71 2.05  89 2.43  95 2.72  93 2.72 108 2.72 110 2.73
  15  0.724  0.673  0.843-  76 2.02  90 2.40 109 2.69 108 2.71  95 2.72  94 2.76
  16  0.975  0.923  0.842-  73 2.04  91 2.41  92 2.71 110 2.72 109 2.72  95 2.73
  17  0.473  0.582  0.159-  65 2.04 100 2.42  96 2.70  81 2.71  82 2.73  99 2.74
  18  0.724  0.831  0.159-  76 2.04 101 2.42  97 2.68  96 2.72  83 2.73  82 2.75
  19  0.224  0.830  0.158-  71 2.05 102 2.44  81 2.71  96 2.71  83 2.71  98 2.72
  20  0.474  0.082  0.160-  74 2.05 103 2.44  99 2.70  98 2.72  97 2.72  96 2.73
  21  0.474  0.922  0.341-  78 2.05  96 2.44 103 2.66 101 2.71 102 2.71 100 2.72
  22  0.725  0.168  0.341-  75 2.05  97 2.45  86 2.62 101 2.71  84 2.71 103 2.74
  23  0.224  0.172  0.341-  64 2.04  98 2.44  84 2.71  85 2.72 103 2.72 102 2.72
  24  0.482  0.433  0.346-  69 1.99  99 2.46 100 2.63  86 2.65  85 2.78
  25  0.482  0.588  0.654-  69 1.99 108 2.46 104 2.63  90 2.65  89 2.77
  26  0.724  0.833  0.656-  72 2.00 109 2.45 105 2.65 104 2.72  91 2.75
  27  0.224  0.829  0.659-  67 2.04 110 2.44  91 2.68  89 2.70 104 2.72 106 2.74
  28  0.474  0.081  0.659-  78 2.05 111 2.44 107 2.66 105 2.71 106 2.71 104 2.72
  29  0.473  0.923  0.841-  74 2.04 104 2.42 111 2.70 110 2.71 109 2.73 108 2.74
  30  0.724  0.172  0.841-  79 2.04 105 2.42  94 2.68 111 2.72  92 2.73 109 2.75
  31  0.224  0.171  0.842-  68 2.05 106 2.44 110 2.71  92 2.71 111 2.71  93 2.72
  32  0.474  0.422  0.840-  65 2.05 107 2.44 108 2.70  93 2.72  94 2.72 111 2.73
  33  0.081  0.145  0.001-  68 1.94  73 1.95  92 2.55  80 2.56
  34  0.868  0.857  0.001-  73 1.95  76 1.95  83 2.53  95 2.58
  35  0.868  0.356  0.999-  66 1.95  79 1.95  92 2.53  80 2.58
  36  0.081  0.643  0.999-  71 1.94  66 1.95  83 2.55  95 2.56
  37  0.115  0.394  0.500-  70 1.91  64 1.94  89 2.57  85 2.57
  38  0.349  0.621  0.500-  69 1.94  67 1.96  89 2.69  85 2.69
  39  0.722  0.589  0.500-  72 1.81  86 2.29  90 2.29
  40  0.600  0.371  0.500-  69 1.91  75 1.93
  41  0.083  0.141  0.500-  64 1.94  77 1.96  84 2.56  88 2.56
  42  0.874  0.849  0.500-  72 1.89  77 1.96  91 2.51  87 2.51
  43  0.865  0.357  0.500-  70 1.93  75 1.95  88 2.58  84 2.58
  44  0.079  0.643  0.500-  70 1.95  67 1.97  87 2.56  91 2.56
  45  0.118  0.394  1.000-  68 1.94  66 1.94  93 2.55  81 2.55
  46  0.331  0.607  0.999-  71 1.94  65 1.94  93 2.54  81 2.55
  47  0.830  0.606  0.001-  76 1.94  66 1.94  94 2.55  82 2.56
  48  0.617  0.393  1.000-  65 1.94  79 1.96  94 2.53  82 2.57
  49  0.580  0.644  1.000-  65 1.94  76 1.94  96 2.54 108 2.57
  50  0.367  0.358  0.001-  68 1.94  65 1.94 111 2.55  99 2.57
  51  0.367  0.857  0.999-  71 1.94  74 1.94  96 2.55 108 2.57
  52  0.580  0.144  0.000-  74 1.94  79 1.94 111 2.55  99 2.57
  53  0.599  0.871  0.500-  72 1.89  78 1.94
  54  0.832  0.103  0.500-  77 1.93  75 1.93 105 2.56 101 2.56
  55  0.338  0.115  0.500-  64 1.94  78 1.95 106 2.62 102 2.62
  56  0.117  0.894  0.500-  77 1.92  67 1.94 106 2.55 102 2.55
  57  0.359  0.367  0.500-  69 1.92  64 1.94 103 2.65 107 2.65
  58  0.359  0.865  0.500-  78 1.91  67 1.92 104 2.63 100 2.63
  59  0.590  0.129  0.500-  78 1.91  75 1.94 103 2.64 107 2.64
  60  0.617  0.894  0.000-  74 1.94  76 1.96  97 2.53 109 2.57
[...]
  97  0.724  0.073  0.150-  22 2.45  60 2.53  61 2.55  18 2.68   1 2.72  20 2.72   3 2.76
  98  0.224  0.077  0.152-  23 2.44  62 2.54  63 2.55   2 2.72  20 2.72  19 2.72   1 2.72
  99  0.475  0.328  0.154-  24 2.46  52 2.57  50 2.57  20 2.70   3 2.71   2 2.72  17 2.74
 100  0.474  0.675  0.347-  17 2.42  24 2.63  58 2.63  21 2.72   6 2.72   7 2.72
 101  0.723  0.923  0.347-  18 2.42  54 2.56   7 2.65  22 2.71  21 2.71   8 2.73
 102  0.224  0.925  0.348-  19 2.44  56 2.55  55 2.62  21 2.71  23 2.72   8 2.73   6 2.74
 103  0.474  0.171  0.349-  20 2.44  59 2.64  57 2.65  21 2.66  23 2.72  22 2.74
 104  0.474  0.828  0.653-  29 2.42  25 2.63  58 2.63  28 2.72  26 2.72  27 2.72
 105  0.723  0.076  0.653-  30 2.42  54 2.56  26 2.65  11 2.71  28 2.71   9 2.73
 106  0.224  0.077  0.652-  31 2.44  56 2.55  55 2.62  28 2.71  10 2.72   9 2.72  27 2.74
 107  0.474  0.322  0.651-  32 2.44  59 2.64  57 2.65  28 2.66  10 2.72  11 2.74
 108  0.475  0.673  0.846-  25 2.46  49 2.57  51 2.57  32 2.70  15 2.71  14 2.72  29 2.74
 109  0.724  0.922  0.846-  26 2.45  61 2.56  60 2.57  15 2.69  16 2.72  29 2.73  30 2.75
 110  0.225  0.926  0.849-  27 2.44  62 2.55  63 2.55  29 2.71  31 2.71  16 2.72  14 2.73
 111  0.474  0.176  0.849-  28 2.44  52 2.55  50 2.55  29 2.70  31 2.71  30 2.72  32 2.73

  LATTYP: Found a base centered orthorhombic cell.
 ALAT       =    10.8749739061
 B/A-ratio  =     2.3644048249
 C/A-ratio  =     1.0000101723

  Lattice vectors:

 A1 = (   3.8335882400,   3.8349345400, -12.8627506400)
 A2 = (   3.8548230400,   3.8561790800,  12.8500725900)
 A3 = (   7.6911861600,  -7.6885056400,   0.0000000100)

Analysis of symmetry for initial positions (statically):
 Subroutine PRICEL returns:
 Original cell was already a primitive cell.

 Routine SETGRP: Setting up the symmetry group for a
 base centered orthorhombic supercell.

 Subroutine GETGRP returns: Found  1 space group operations
 (whereof  1 operations were pure point group operations)
 out of a pool of  8 trial point group operations.

The static configuration has the point symmetry C_1 .

Analysis of symmetry for dynamics (positions and initial velocities):
 Subroutine PRICEL returns:
 Original cell was already a primitive cell.

[...]

The dynamic configuration has the point symmetry C_1 .

Analysis of structural, dynamic, and magnetic symmetry:
 Subroutine PRICEL returns:
 Original cell was already a primitive cell.

 Routine SETGRP: Setting up the symmetry group for a
 base centered orthorhombic supercell.

 Subroutine GETGRP returns: Found  1 space group operations
 (whereof  1 operations were pure point group operations)
 out of a pool of  8 trial point group operations.

The overall configuration has the point symmetry C_1 .

 Subroutine INISYM returns: Found  1 space group operations
 (whereof  1 operations are pure point group operations),
 and found     1 'primitive' translations

                                     Primitive cell

  volume of cell :    1520.4808

  direct lattice vectors                    reciprocal lattice vectors
     7.691186160 -7.688505640  0.000000010     0.065032232 -0.065009382  0.000000006
     7.688411280  7.691113620 -0.012678050     0.065042145  0.065064822  0.038783628
    -3.833588240 -3.834934540 12.862750640     0.000064108  0.000064131  0.077782096

  length of vectors
    10.875084530 10.874973906 13.958992648     0.091953308  0.099840280  0.077782149

  position of ions in fractional coordinates (direct lattice)
     0.974029132  0.081370323  0.159436055
     0.224253262  0.330873193  0.160455881
     0.724228995  0.329795822  0.156699705
     0.974863093  0.580537781  0.157975046
     0.966274296  0.431488622  0.345571469
     0.223665141  0.670394522  0.341226437
     0.724015954  0.677351374  0.344142236
     0.973858737  0.921954304  0.340986646
     0.973900863  0.080981950  0.659012504
     0.223636742  0.331085884  0.658595614
     0.725253213  0.327698155  0.659318759
     0.966249533  0.585948212  0.654435347
     0.974014062  0.421941454  0.840553995
     0.224241087  0.670411108  0.839540571
     0.724142422  0.673101065  0.843304549
     0.974808264  0.922562300  0.842014810
     0.473491926  0.582108969  0.158799788
     0.723960708  0.831464318  0.159050640
     0.224203479  0.829688540  0.158423836
[...]
   0.149E+02 -.924E-01 0.440E+00   -.149E+02 0.753E-01 -.464E+00   0.146E-01 0.168E-01 0.235E-01
   -.127E+02 -.112E+01 -.256E+01   0.128E+02 0.125E+01 0.246E+01   -.703E-01 -.125E+00 0.946E-01
   0.217E+00 -.144E+02 0.963E+00   -.283E+00 0.144E+02 -.931E+00   0.660E-01 -.531E-02 -.321E-01
   0.128E+00 0.141E+02 -.117E+01   -.139E+00 -.142E+02 0.113E+01   0.106E-01 0.992E-02 0.368E-01
   0.124E+00 0.142E+02 0.115E+01   -.135E+00 -.142E+02 -.112E+01   0.108E-01 0.962E-02 -.369E-01
   0.214E+00 -.144E+02 -.947E+00   -.281E+00 0.144E+02 0.916E+00   0.659E-01 -.518E-02 0.317E-01
   0.851E+01 -.428E+00 0.755E-02   -.847E+01 -.105E+00 -.722E-02   -.406E-01 0.533E+00 -.216E-03
   0.139E+02 -.128E+01 -.121E-01   -.138E+02 0.125E+01 0.119E-01   -.336E-01 0.389E-01 0.707E-04
   0.733E+01 -.284E+01 -.413E-03   -.734E+01 0.286E+01 0.976E-04   0.180E-01 -.205E-01 0.200E-03
   -.133E+02 0.142E+01 0.204E-01   0.133E+02 -.134E+01 -.208E-01   0.261E-01 -.808E-01 0.223E-03
   -.218E+01 0.408E+01 -.174E-02   0.249E+01 -.408E+01 0.128E-02   -.314E+00 0.135E-02 0.433E-03
   0.225E+01 0.118E+02 -.670E-02   -.212E+01 -.118E+02 0.654E-02   -.125E+00 -.331E-01 0.131E-03
   -.348E+01 -.726E+01 0.126E-01   0.331E+01 0.727E+01 -.125E-01   0.176E+00 -.541E-02 -.153E-03
   -.127E+02 -.112E+01 0.258E+01   0.128E+02 0.125E+01 -.248E+01   -.703E-01 -.125E+00 -.944E-01
[...]
   -.217E+01 -.167E+01 0.815E+02   0.217E+01 0.165E+01 -.820E+02   0.776E-02 0.282E-01 0.472E+00
   0.500E+01 -.309E+01 0.739E+02   -.504E+01 0.313E+01 -.743E+02   0.410E-01 -.390E-01 0.430E+00
   -.700E+00 0.912E+01 -.998E+02   0.776E+00 -.929E+01 0.100E+03   -.771E-01 0.170E+00 -.603E+00
   0.183E+01 0.258E+01 -.915E+02   -.189E+01 -.263E+01 0.921E+02   0.689E-01 0.505E-01 -.555E+00
   -.343E+00 -.157E+01 -.855E+02   0.372E+00 0.162E+01 0.860E+02   -.308E-01 -.475E-01 -.455E+00
   -.146E+02 -.216E+02 -.863E+02   0.147E+02 0.217E+02 0.867E+02   -.125E+00 -.183E+00 -.477E+00
   -.466E+00 0.919E+01 0.998E+02   0.540E+00 -.936E+01 -.100E+03   -.753E-01 0.170E+00 0.602E+00
   0.187E+01 0.287E+01 0.915E+02   -.193E+01 -.292E+01 -.921E+02   0.689E-01 0.529E-01 0.555E+00
   -.270E+00 -.137E+01 0.855E+02   0.299E+00 0.141E+01 -.859E+02   -.306E-01 -.457E-01 0.455E+00
   -.145E+02 -.214E+02 0.863E+02   0.146E+02 0.216E+02 -.868E+02   -.125E+00 -.182E+00 0.478E+00
   0.495E+01 -.330E+01 -.739E+02   -.499E+01 0.333E+01 0.743E+02   0.415E-01 -.408E-01 -.430E+00
   0.798E+00 0.188E-01 -.780E+02   -.790E+00 0.129E-01 0.784E+02   -.884E-02 -.331E-01 -.448E+00
   0.400E+01 0.332E+01 -.837E+02   -.403E+01 -.333E+01 0.842E+02   0.340E-01 0.917E-02 -.485E+00
   -.140E+01 -.262E+01 -.862E+02   0.144E+01 0.265E+01 0.866E+02   -.423E-01 -.327E-01 -.477E+00
   0.108E+02 0.144E+02 -.248E-01   -.101E-12 -.268E-12 -.654E-12   -.108E+02 -.144E+02 0.241E-01

 POSITION                                       TOTAL-FORCE (eV/Angst)
      7.50584     -7.47443      2.04975         0.000007     -0.000463     -0.001225
      3.65354      0.20527      2.05971        -0.000360      0.000126     -0.001283
      7.50506     -3.63267      2.01141         0.000174     -0.000464     -0.002197
     11.35566     -3.63608      2.02463         0.000867      0.000154     -0.001157
      9.42448     -5.43582      4.43953        -0.000007     -0.000306     -0.002164
      5.56640      2.12785      4.38061        -0.000303      0.000724     -0.002853
      9.45700     -1.67678      4.41803         0.000875     -0.000333     -0.000276
     13.27129     -1.70432      4.37434        -0.000032      0.000205     -0.001316
      5.58669     -9.39227      8.47569        -0.000352      0.000250      0.000908
      1.74077     -1.69868      8.46715         0.000026      0.000109      0.001012
      5.56998     -5.58419      8.47650        -0.000561     -0.000616      0.000412
      9.42778     -5.43214      8.41041        -0.000364      0.000082      0.002422
      7.51304     -7.46698     10.80649         0.000231      0.000232      0.001549
      3.66062      0.21255     10.79030        -0.000145     -0.000022      0.001777
      7.51171     -3.62469     10.83868         0.000071     -0.000034      0.001943
     11.36253     -3.62836     10.81893         0.000220      0.000024      0.001518
      7.50843      0.22763      2.03522         0.000340      0.000780     -0.001838
     11.35102      0.21876      2.03529         0.000600      0.000074      0.001608
      7.49605      4.04989      2.02725        -0.000375      0.000269     -0.001258
      3.66285     -3.63065      2.05535        -0.000327     -0.000174     -0.001410
      9.42709      2.14385      4.37202         0.000457      0.000333     -0.000981
      5.56679     -5.58753      4.38021        -0.000448     -0.001246     -0.000369
      1.73716     -1.70171      4.38912        -0.000584      0.000216     -0.001339
      5.71172     -1.69547      4.43899        -0.000029     -0.000029     -0.002259
      5.71477     -1.69198      8.41050         0.000440     -0.000193      0.002901
      9.45980     -1.67303      8.42548         0.000183     -0.000279      0.000458
      5.56946      2.13130      8.46317         0.000022      0.000115      0.002896
      1.74250     -5.54413      8.47799         0.000562     -0.000153      0.000822
      7.51552      0.23508     10.80854         0.000124      0.000048      0.001528
      3.66938     -7.46475     10.81476         0.000359      0.000026     -0.002015
     -0.18555     -3.63400     10.82276        -0.000069      0.000058      0.001314
      3.67003     -3.62328     10.80109         0.000478      0.000176      0.001189
      1.73290      0.48393      0.01490        -0.000031     -0.000488      0.000112
     13.26381     -0.08834     -0.00333         0.000142     -0.000077      0.000027
      5.58602     -7.76882     12.85029         0.000166     -0.000015      0.000020
      1.74353      0.49453     12.83788         0.000206     -0.000463      0.000055
      1.99838      0.22555      6.42669        -0.000252     -0.000107     -0.000128
      5.54240      0.17595      6.42342         0.001186      0.000016      0.000008
      8.16414     -2.94351      6.42382         0.000743     -0.000680      0.000128
      5.55476     -3.67875      6.42687         0.000396     -0.000518      0.000037
     -0.19371     -1.46686      6.42943         0.000145      0.000277     -0.000215
     11.32861     -2.11024      6.42078        -0.000178      0.001565     -0.000095
      7.48465     -5.82253      6.42701        -0.000037     -0.000205     -0.000047
      3.63219      2.42454      6.42318        -0.000326      0.000356     -0.000152
      0.10281     -1.70979     12.85555        -0.000412     -0.000175     -0.000068
      3.38379     -1.70372     12.84509        -0.000228     -0.000016      0.000061
     11.03897     -1.72258      0.00571         0.000239     -0.000343     -0.000230
      3.93519     -5.54926     12.85611        -0.000146      0.000221     -0.000072
      5.58124     -3.34562     12.84990        -0.000333     -0.000226     -0.000309
      5.57694     -0.07129      0.00820        -0.000044     -0.000100     -0.000012
      5.58752     -0.06089     12.83908         0.000043     -0.000241      0.000081
      5.57066     -3.35621      0.00333        -0.000454     -0.000328      0.000227
      9.38443      0.18055      6.42012        -0.002038      0.000198      0.000123
      5.27703     -7.51980      6.43023         0.000896      0.000302     -0.000145
      1.56287     -3.62955      6.42993         0.001958      0.000159     -0.000108
      5.85926      4.05491      6.42005        -0.000775      0.000664     -0.000117
      3.66264     -1.85715      6.42635         0.000310      0.000606     -0.000013
      7.49246      1.97664      6.42077         0.000380      0.001917     -0.000018
      3.61642     -5.46521      6.42949         0.000429     -0.001632      0.000007
     11.61314      2.13126     -0.00928        -0.000319      0.000103      0.000025
[...]
      5.55603     -5.58246      1.93365        -0.000326     -0.000693      0.000754
      1.73382     -1.71705      1.95359        -0.000381      0.000109      0.001322
      5.57784     -1.72175      1.98262        -0.000205     -0.000061      0.000958
      7.50586      0.22076      4.45791         0.000094      0.000648      0.000952
     11.32502      0.20840      4.45522         0.000174     -0.000093     -0.000129
      7.50576      4.05788      4.46640        -0.000475      0.000729      0.000773
      3.61978     -3.66686      4.49129        -0.000442      0.000103      0.001548
      7.50917      0.22394      8.38581         0.000242      0.000096     -0.000706
      3.63978     -7.47951      8.39490        -0.000239     -0.000034      0.000031
     -0.17940     -3.63008      8.38360        -0.000120      0.000448     -0.001301
      3.62303     -3.66363      8.36520        -0.000150      0.000026     -0.001565
      5.58519     -1.71447     10.86737         0.000267     -0.000291     -0.000963
      9.41487     -1.72401     10.86971         0.000030     -0.000774     -0.000538
      5.59171      2.13776     10.90340        -0.000331     -0.000130     -0.000915
      1.73667     -5.54835     10.92205        -0.000047     -0.000281     -0.001208
    total drift:                               -0.008221      0.005147     -0.000742

  FREE ENERGIE OF THE ION-ELECTRON SYSTEM (eV)
  free  energy   TOTEN  =      -584.93961215 eV

  energy  without entropy=     -584.91164198  energy(sigma->0) =     -584.92562706

 NEB: the previous image is higher in energy: F
 NEB: the next image is higher in energy    : F
 NEB: image is at an extrema
 NEB: diff energy (min, max):     0.130997    0.194379

 NEB: Tangent
      0.00235     -0.00210      0.00252
     -0.00294      0.00016     -0.00002
     -0.00543      0.00054      0.00382
      0.00508     -0.00712     -0.00226
     -0.00372      0.03284      0.03034
      0.00967     -0.01443      0.00071
      0.05071     -0.05479     -0.00112
      0.00798     -0.00001      0.00055
      0.00827     -0.00003     -0.00060
      0.00154     -0.00410     -0.00018
      0.01042     -0.01057      0.00052
     -0.00359      0.03331     -0.03049
      0.00242     -0.00214     -0.00256
     -0.00298      0.00014      0.00005
     -0.00552      0.00031     -0.00383
      0.00515     -0.00721      0.00228
      0.00422     -0.00623      0.00289
      0.00203     -0.00270     -0.00058
      0.00029     -0.00289      0.00075
      0.00218     -0.00503     -0.00196
     -0.00137     -0.00905     -0.00051
      0.01031     -0.01030     -0.00048
      0.00130     -0.00399      0.00019
     -0.03760     -0.00321     -0.03198
     -0.03701     -0.00285      0.03206
      0.05082     -0.05440      0.00118
      0.00974     -0.01416     -0.00068
     -0.00116     -0.00907      0.00047
      0.00434     -0.00602     -0.00286
      0.00200     -0.00277      0.00057
      0.00031     -0.00298     -0.00071
      0.00222     -0.00490      0.00191
      0.00126     -0.00091      0.00192
      0.00185     -0.00388     -0.00489
      0.00189     -0.00385      0.00482
      0.00124     -0.00093     -0.00191
      0.02249     -0.02887      0.00016
      0.03466     -0.01252     -0.00004
     -0.64907      0.70271      0.00002
     -0.09173     -0.03796      0.00020
      0.00540     -0.00361     -0.00002
     -0.00720     -0.01277      0.00010
      0.03055      0.07943     -0.00012
      0.00762     -0.00615     -0.00005
      0.00081     -0.00259     -0.00267
      0.00257     -0.00298      0.00092
      0.00032     -0.00291      0.00056
     -0.00093     -0.00365      0.00122
      0.00197     -0.00479      0.00377
      0.00092     -0.00010     -0.00043
      0.00092     -0.00009      0.00040
      0.00198     -0.00482     -0.00368
      0.01449      0.00370     -0.00019
      0.02201     -0.00416     -0.00009
      0.01268     -0.00365     -0.00002
     -0.00118     -0.00384     -0.00005
      0.02819      0.01288     -0.00005
      0.00489      0.00564      0.00003
     -0.00012     -0.02922      0.00000
     -0.00098     -0.00367     -0.00138
[...]
      0.00193     -0.00009     -0.00005
      0.00345     -0.00558      0.00035
      0.00797     -0.01072     -0.01793
      0.00129     -0.00840      0.00213
      0.00302     -0.00055     -0.00002
      0.00458     -0.00492      0.00061
      0.01671      0.00354      0.00482
      0.00139     -0.00836     -0.00211
      0.00305     -0.00054      0.00000
      0.00455     -0.00494     -0.00060
      0.01661      0.00346     -0.00487
      0.00804     -0.01067      0.01795
      0.00393     -0.00294      0.00006
      0.00094     -0.00382     -0.00080
      0.00425     -0.00149     -0.00144

 NEB: forces: par spring, perp REAL, dneb     0.759745    0.013254    0.000000
 NEB: distance to prev, next image, angle between     0.493236    0.645185  163.840643
 NEB: projections on to tangent (spring, REAL)     0.759745   -0.000807

 stress matrix after NEB project (eV)
    -10.85730      1.46945     -0.00812
      1.46931    -10.19186     -0.00596
     -0.00808     -0.00595    -14.80960
  FORCES: max atom, RMS     0.002984    0.001260
  FORCE total and by dimension    0.013279    0.002953
  Stress total and by dimension   21.104444   14.809598
 OPT: skip step - force has converged

 reached required accuracy - stopping structural energy minimisation
 writing wavefunctions

 total charge

[...]

 magnetization (x)

# of ion       s       p       d       tot
    1        0.041   0.030   3.569   3.639
    2        0.041   0.030   3.570   3.640
    3        0.041   0.030   3.561   3.632
    4        0.041   0.030   3.564   3.635
    5        0.042   0.031   3.547   3.620
    6        0.040   0.030   3.560   3.630
    7        0.043   0.031   3.556   3.630
    8        0.040   0.030   3.569   3.639
    9        0.040   0.030   3.569   3.639
   10        0.040   0.030   3.570   3.640
   11        0.039   0.030   3.567   3.636
   12        0.042   0.031   3.547   3.620
   13        0.041   0.030   3.569   3.639
   14        0.041   0.030   3.570   3.640
   15        0.041   0.030   3.561   3.632
   16        0.041   0.030   3.564   3.635
   17        0.041   0.030   3.565   3.636
   18        0.041   0.030   3.567   3.638
   19        0.040   0.030   3.572   3.642
   20        0.040   0.030   3.571   3.641
   21        0.039   0.030   3.566   3.635
   22        0.039   0.030   3.567   3.636
   23        0.040   0.030   3.570   3.640
   24        0.041   0.031   3.545   3.617
   25        0.041   0.031   3.545   3.617
   26        0.043   0.031   3.556   3.630
   27        0.040   0.030   3.560   3.630
   28        0.039   0.030   3.566   3.635
   29        0.041   0.030   3.565   3.636
   30        0.041   0.030   3.567   3.638
   31        0.040   0.030   3.572   3.642
   32        0.040   0.030   3.571   3.641
   33        0.000   0.001   0.000   0.001
   34       -0.000   0.001   0.000   0.001
   35       -0.000   0.001   0.000   0.001
   36        0.000   0.001   0.000   0.001
   37        0.000   0.001   0.000   0.001
   38       -0.000   0.001   0.000   0.001
   39        0.001   0.002   0.000   0.003
   40       -0.000   0.001   0.000   0.001
   41       -0.000   0.001   0.000   0.001
   42        0.000   0.001   0.000   0.001
   43       -0.000   0.001   0.000   0.001
   44       -0.000   0.001   0.000   0.001
   45        0.000   0.001   0.000   0.001
   46        0.000   0.001   0.000   0.001
   47        0.000   0.001   0.000   0.001
   48        0.000   0.001   0.000   0.001
   49        0.000   0.001   0.000   0.001
   50        0.000   0.001   0.000   0.001
   51        0.000   0.001   0.000   0.001
   52        0.000   0.001   0.000   0.001
   53       -0.000   0.001   0.000   0.001
   54       -0.000   0.001   0.000   0.001
   55       -0.000   0.001   0.000   0.001
   56        0.000   0.001   0.000   0.001
   57        0.000   0.001   0.000   0.001
   58        0.000   0.001   0.000   0.001
   59       -0.000   0.001   0.000   0.001
   60        0.000   0.001   0.000   0.001
[...]
   97        0.016   0.067   0.000   0.083
   98        0.016   0.065   0.000   0.080
   99        0.015   0.053   0.000   0.068
  100        0.015   0.051   0.000   0.066
  101        0.016   0.066   0.000   0.082
  102        0.016   0.066   0.000   0.082
  103        0.015   0.059   0.000   0.074
  104        0.015   0.051   0.000   0.066
  105        0.016   0.066   0.000   0.082
  106        0.016   0.066   0.000   0.082
  107        0.015   0.059   0.000   0.074
  108        0.015   0.053   0.000   0.068
  109        0.015   0.059   0.000   0.074
  110        0.016   0.063   0.000   0.079
  111        0.016   0.063   0.000   0.079
tot          1.937   4.393 114.041 120.372