 vasp.6.2.0 18Jan21 (build Jan 29 2021 15:03:46) complex

 executed on             LinuxIFC date 2021.03.30  04:23:20

 INCAR:
   AEXX = 0.25
   ALGO = all
   EDIFF = 9e-06
   EDIFFG = -0.03
   ENCUT = 520
   GGA = pe
   HFSCREEN = 0.207
   IBRION = 2
   ISIF = 3
   ISMEAR = 0
   ISPIN = 2
   KPAR = 28
   LASPH = .TRUE.
   LHFCALC = .TRUE.
   LMAXFOCK = 4
   LORBIT = 11
   LREAL = .FALSE.
   LVHAR = .TRUE.
   LWAVE = .TRUE.
   MAGMOM = 0.6 0.6 0.6 0.6 0.6 0.6 5 5 5
   NCORE = 1
   NEDOS = 2000
   NELM = 200
   NELMIN = 4
   NSW = 60
   NWRITE = 1
   PREC = accurate
   PRECFOCK = fast
   SIGMA = 0.05
   TIME = 0.3

 POTCAR:    PAW_PBE Li_sv 10Sep2004
 POTCAR:    PAW_PBE O 08Apr2002
 POTCAR:    PAW_PBE S 06Sep2000
 POTCAR:    PAW_PBE Fe_pv 02Aug2007
|           W    W    AA    RRRRR   N    N  II  N    N   GGGG   !!!           |
|           W    W   A  A   R    R  NN   N  II  NN   N  G    G  !!!           |
|           W    W  A    A  R    R  N N  N  II  N N  N  G       !!!           |
|           W WW W  AAAAAA  RRRRR   N  N N  II  N  N N  G  GGG   !            |
|           WW  WW  A    A  R   R   N   NN  II  N   NN  G    G                |
|           W    W  A    A  R    R  N    N  II  N    N   GGGG   !!!           |
|     For optimal performance we recommend to set                             |
|       NCORE = 2 up to number-of-cores-per-socket                            |
|     This setting can greatly improve the performance of VASP for DFT.       |
|     The default, NCORE=1 might be grossly inefficient on modern             |
|     multi-core architectures or massively parallel machines. Do your        |
|     Unfortunately you need to use the default for GW and RPA                |
|     calculations (for HF NCORE is supported but not extensively tested      |
|     yet).                                                                   |

 POTCAR:    PAW_PBE Li_sv 10Sep2004

 POTCAR:    PAW_PBE O 08Apr2002

 POTCAR:    PAW_PBE S 06Sep2000

 POTCAR:    PAW_PBE Fe_pv 02Aug2007

  PAW_PBE Li_sv 10Sep2004               :
  PAW_PBE O 08Apr2002                   :
  PAW_PBE S 06Sep2000                   :
  PAW_PBE Fe_pv 02Aug2007               :

 POSCAR: # Compound: Li2O2S2Fe3. Old comment: Fe3
  positions in direct lattice
 exchange correlation table for  LEXCH =        8
   RHO(1)=    0.500       N(1)  =     2000
   RHO(2)=  100.500       N(2)  =     4000

 ion  position               nearest neighbor table
   1  0.316  0.500  0.000-   3 1.97   4 1.97
   2  0.316  0.000  0.500-   3 1.97   4 1.97
   3  0.318  0.250  0.750-   1 1.97   2 1.97   8 1.98   8 1.98   9 2.00
   4  0.318  0.750  0.250-   1 1.97   2 1.97   7 1.98   7 1.98   9 2.00
   5  0.819  0.236  0.236-   7 2.52   8 2.52   9 2.65   9 2.66
   6  0.819  0.764  0.764-   8 2.52   7 2.52   9 2.65   9 2.66
   7  0.818  0.679  0.321-   4 1.98   4 1.98   5 2.52   6 2.52
   8  0.818  0.321  0.679-   3 1.98   3 1.98   6 2.52   5 2.52
   9  0.322  0.000  0.000-   3 2.00   4 2.00   5 2.65   6 2.65   5 2.66   6 2.66

  LATTYP: Found a base centered orthorhombic cell.
 ALAT       =     7.8823414544
 B/A-ratio  =     1.0135903325
 C/A-ratio  =     0.4798791846

  Lattice vectors:

 A1 = (   0.0000000000,   5.6112619000,   0.0667433300)
 A2 = (   0.0000000000,  -0.1424780200,   5.6098498100)
 A3 = (   3.7825715900,   0.0000000000,   0.0000000000)

Analysis of symmetry for initial positions (statically):
 Subroutine PRICEL returns:
 Original cell was already a primitive cell.

 Routine SETGRP: Setting up the symmetry group for a
 base centered orthorhombic supercell.

 Subroutine GETGRP returns: Found  4 space group operations
 (whereof  4 operations were pure point group operations)
 out of a pool of  8 trial point group operations.

The static configuration has the point symmetry C_2v.

Analysis of symmetry for dynamics (positions and initial velocities):
 Subroutine PRICEL returns:
 Original cell was already a primitive cell.

[...]

The dynamic configuration has the point symmetry C_2v.

Analysis of structural, dynamic, and magnetic symmetry:
 Subroutine PRICEL returns:
 Original cell was already a primitive cell.

 Routine SETGRP: Setting up the symmetry group for a
 base centered orthorhombic supercell.

 Subroutine GETGRP returns: Found  4 space group operations
 (whereof  4 operations were pure point group operations)
 out of a pool of  8 trial point group operations.

The overall configuration has the point symmetry C_2v.

 Subroutine INISYM returns: Found  4 space group operations
 (whereof  4 operations are pure point group operations),
 and found     1 'primitive' translations

                                     Primitive cell

  volume of cell :     119.1050

  direct lattice vectors                    reciprocal lattice vectors
     3.782571590  0.000000000  0.000000000     0.264370409  0.000000000  0.000000000
     0.000000000  5.611261900  0.066743330     0.000000000  0.178159212  0.004524858
     0.000000000 -0.142478020  5.609849810     0.000000000 -0.002119654  0.178204057

  length of vectors
     3.782571590  5.611658826  5.611658835     0.264370409  0.178216663  0.178216663

  position of ions in fractional coordinates (direct lattice)
     0.315572930  0.500000000  0.000000000
     0.315572930  1.000000000  0.500000000
     0.318445100  0.249972260  0.750027740
     0.318445100  0.750027740  0.249972260
     0.818561810  0.236487750  0.236487750
     0.818561810  0.763512250  0.763512250
     0.818413130  0.678537900  0.321462100
     0.818413130  0.321462100  0.678537900
     0.321662090  0.000000000  0.000000000

  ion indices of the primitive-cell ions
   primitive index   ion index
                 1           1
                 2           2
                 3           3
                 4           4
                 5           5
                 6           6
                 7           7
                 8           8
                 9           9

 KPOINTS: # No comment

Automatic generation of k-mesh.
 Grid dimensions read from file:
 generate k-points for:    6    4    4

 Generating k-lattice:

  Cartesian coordinates                     Fractional coordinates (reciprocal lattice)
     0.044061735  0.000000000  0.000000000     0.166666667  0.000000000  0.000000000
     0.000000000  0.044539803  0.001131214     0.000000000  0.250000000 -0.000000000
     0.000000000 -0.000529913  0.044551014     0.000000000  0.000000000  0.250000000

  Length of vectors
     0.044061735  0.044554166  0.044554166

  Shift w.r.t. Gamma in fractional coordinates (k-lattice)
     0.000000000  0.000000000  0.000000000

 Subroutine IBZKPT returns following result:

 Found     28 irreducible k-points:

 Following reciprocal coordinates:
            Coordinates               Weight
  0.000000  0.000000  0.000000      1.000000
  0.166667  0.000000  0.000000      2.000000
  0.333333  0.000000  0.000000      2.000000
  0.500000  0.000000  0.000000      1.000000
  0.000000  0.250000  0.000000      4.000000
  0.166667  0.250000  0.000000      8.000000
  0.333333  0.250000  0.000000      8.000000
  0.500000  0.250000  0.000000      4.000000
  0.000000  0.500000 -0.000000      2.000000
  0.166667  0.500000 -0.000000      4.000000
  0.333333  0.500000 -0.000000      4.000000
  0.500000  0.500000 -0.000000      2.000000
  0.000000  0.250000  0.250000      2.000000
  0.166667  0.250000  0.250000      4.000000
  0.333333  0.250000  0.250000      4.000000
  0.500000  0.250000  0.250000      2.000000
  0.000000  0.500000  0.250000      4.000000
  0.166667  0.500000  0.250000      8.000000
  0.333333  0.500000  0.250000      8.000000
  0.500000  0.500000  0.250000      4.000000
  0.000000 -0.250000  0.250000      2.000000
  0.166667 -0.250000  0.250000      4.000000
  0.333333 -0.250000  0.250000      4.000000
  0.500000 -0.250000  0.250000      2.000000
  0.000000  0.500000  0.500000      1.000000
  0.166667  0.500000  0.500000      2.000000
  0.333333  0.500000  0.500000      2.000000
  0.500000  0.500000  0.500000      1.000000

 Following cartesian coordinates:
            Coordinates               Weight
  0.000000  0.000000  0.000000      1.000000
  0.044062  0.000000  0.000000      2.000000
  0.088123  0.000000  0.000000      2.000000
  0.132185  0.000000  0.000000      1.000000
  0.000000  0.044540  0.001131      4.000000
  0.044062  0.044540  0.001131      8.000000
  0.088123  0.044540  0.001131      8.000000
  0.132185  0.044540  0.001131      4.000000
  0.000000  0.089080  0.002262      2.000000
  0.044062  0.089080  0.002262      4.000000
  0.088123  0.089080  0.002262      4.000000
  0.132185  0.089080  0.002262      2.000000
  0.000000  0.044010  0.045682      2.000000
  0.044062  0.044010  0.045682      4.000000
  0.088123  0.044010  0.045682      4.000000
  0.132185  0.044010  0.045682      2.000000
  0.000000  0.088550  0.046813      4.000000
  0.044062  0.088550  0.046813      8.000000
  0.088123  0.088550  0.046813      8.000000
  0.132185  0.088550  0.046813      4.000000
  0.000000 -0.045070  0.043420      2.000000
  0.044062 -0.045070  0.043420      4.000000
  0.088123 -0.045070  0.043420      4.000000
  0.132185 -0.045070  0.043420      2.000000
  0.000000  0.088020  0.091364      1.000000
  0.044062  0.088020  0.091364      2.000000
  0.088123  0.088020  0.091364      2.000000
  0.132185  0.088020  0.091364      1.000000

 Subroutine IBZKPT_HF returns following result:

 Found     96 k-points in 1st BZ
 the following     96 k-points will be used (e.g. in the exchange kernel)
 Following reciprocal coordinates:   # in IRBZ
  0.000000  0.000000  0.000000    0.01041667   1 t-inv F
  0.166667  0.000000  0.000000    0.01041667   2 t-inv F
  0.333333  0.000000  0.000000    0.01041667   3 t-inv F
  0.500000  0.000000  0.000000    0.01041667   4 t-inv F
  0.000000  0.250000  0.000000    0.01041667   5 t-inv F
  0.166667  0.250000  0.000000    0.01041667   6 t-inv F
  0.333333  0.250000  0.000000    0.01041667   7 t-inv F
  0.500000  0.250000  0.000000    0.01041667   8 t-inv F
  0.000000  0.500000 -0.000000    0.01041667   9 t-inv F
  0.166667  0.500000 -0.000000    0.01041667  10 t-inv F
  0.333333  0.500000 -0.000000    0.01041667  11 t-inv F
  0.500000  0.500000 -0.000000    0.01041667  12 t-inv F
  0.000000  0.250000  0.250000    0.01041667  13 t-inv F
  0.166667  0.250000  0.250000    0.01041667  14 t-inv F
  0.333333  0.250000  0.250000    0.01041667  15 t-inv F
  0.500000  0.250000  0.250000    0.01041667  16 t-inv F
  0.000000  0.500000  0.250000    0.01041667  17 t-inv F
  0.166667  0.500000  0.250000    0.01041667  18 t-inv F
  0.333333  0.500000  0.250000    0.01041667  19 t-inv F
  0.500000  0.500000  0.250000    0.01041667  20 t-inv F
  0.000000 -0.250000  0.250000    0.01041667  21 t-inv F
  0.166667 -0.250000  0.250000    0.01041667  22 t-inv F
  0.333333 -0.250000  0.250000    0.01041667  23 t-inv F
  0.500000 -0.250000  0.250000    0.01041667  24 t-inv F
  0.000000  0.500000  0.500000    0.01041667  25 t-inv F
  0.166667  0.500000  0.500000    0.01041667  26 t-inv F
  0.333333  0.500000  0.500000    0.01041667  27 t-inv F
  0.500000  0.500000  0.500000    0.01041667  28 t-inv F
[...]
   3.09570625  1.70713130  3.82795116
   1.21670988  0.00000000  0.00000000

 k-point   1 :   0.0000 0.0000 0.0000  plane waves:    3231
 k-point   2 :   0.1667 0.0000 0.0000  plane waves:    3222
 k-point   3 :   0.3333 0.0000 0.0000  plane waves:    3224
 k-point   4 :   0.5000 0.0000 0.0000  plane waves:    3214
 k-point   5 :   0.0000 0.2500 0.0000  plane waves:    3191
 k-point   6 :   0.1667 0.2500 0.0000  plane waves:    3212
 k-point   7 :   0.3333 0.2500 0.0000  plane waves:    3212
 k-point   8 :   0.5000 0.2500 0.0000  plane waves:    3210
 k-point   9 :   0.0000 0.5000-0.0000  plane waves:    3174
 k-point  10 :   0.1667 0.5000-0.0000  plane waves:    3200
 k-point  11 :   0.3333 0.5000-0.0000  plane waves:    3222
 k-point  12 :   0.5000 0.5000-0.0000  plane waves:    3212
 k-point  13 :   0.0000 0.2500 0.2500  plane waves:    3205
 k-point  14 :   0.1667 0.2500 0.2500  plane waves:    3203
 k-point  15 :   0.3333 0.2500 0.2500  plane waves:    3209
 k-point  16 :   0.5000 0.2500 0.2500  plane waves:    3224
 k-point  17 :   0.0000 0.5000 0.2500  plane waves:    3182
 k-point  18 :   0.1667 0.5000 0.2500  plane waves:    3198
 k-point  19 :   0.3333 0.5000 0.2500  plane waves:    3212
 k-point  20 :   0.5000 0.5000 0.2500  plane waves:    3212
 k-point  21 :   0.0000-0.2500 0.2500  plane waves:    3203
 k-point  22 :   0.1667-0.2500 0.2500  plane waves:    3214
 k-point  23 :   0.3333-0.2500 0.2500  plane waves:    3216
 k-point  24 :   0.5000-0.2500 0.2500  plane waves:    3214
 k-point  25 :   0.0000 0.5000 0.5000  plane waves:    3156
 k-point  26 :   0.1667 0.5000 0.5000  plane waves:    3192
 k-point  27 :   0.3333 0.5000 0.5000  plane waves:    3204
 k-point  28 :   0.5000 0.5000 0.5000  plane waves:    3216

 maximum and minimum number of plane-waves per node :      3231     3156

 maximum number of plane-waves:      3231
 maximum index in each direction:
   IXMAX=    7   IYMAX=   10   IZMAX=   10
   IXMIN=   -7   IYMIN=  -10   IZMIN=  -10

 serial   3D FFT for wavefunctions
 parallel 3D FFT for charge:
    minimum data exchange during FFTs selected (reduces bandwidth)

 FFT grid for exact exchange (Hartree Fock)
  NGX = 16; NGY = 24; NGZ = 24

 Radii for the augmentation spheres in the non-local exchange
 for species   1 augmentation radius   0.956 (default was   0.708)
       energy cutoff for augmentation   2080.0
 for species   2 augmentation radius   0.974 (default was   0.722)
       energy cutoff for augmentation   2080.0
 for species   3 augmentation radius   1.309 (default was   0.970)
       energy cutoff for augmentation   2080.0
 for species   4 augmentation radius   1.283 (default was   0.950)
       energy cutoff for augmentation   2080.0
 Maximum index for augmentation-charges in exchange          730
  SETUP_FOCK is finished

 Broyden mixing: mesh for mixing (old mesh)
   NGX = 15   NGY = 21   NGZ = 21
  (NGX  = 56   NGY  = 84   NGZ  = 84)
  gives a total of   6615 points

 charge density for first step will be calculated from the start-wavefunctions

 Maximum index for augmentation-charges         3148 (set IRDMAX)

 initial charge from wavefunction
 First call to EWALD:  gamma=   0.360
 Maximum number of real-space cells 3x 2x 2
 Maximum number of reciprocal cells 2x 3x 3

--------------------------------------- Iteration      1(   1)  ---------------------------------------

 eigenvalue-minimisations  :     0
 total energy-change (2. order) :-0.7548373E+02  (-0.4449633E-05)
 number of electron      72.0000051 magnetization      12.0000027
 augmentation part       27.1082527 magnetization       8.0598847

 Free energy of the ion-electron system (eV)
  alpha Z        PSCENC =       230.06133586
  Ewald energy   TEWEN  =     -5521.36491186
  -Hartree energ DENC   =     -2963.81391031
  -exchange      EXHF   =       213.00392197
  -V(xc)+E(xc)   XCENC  =       244.09096040
  PAW double counting   =      9312.44587807    -9579.85579795
  entropy T*S    EENTRO =        -0.00000000
  eigenvalues    EBANDS =     -1178.82248293
  atomic energy  EATOM  =      9168.77127541
  free energy    TOTEN  =       -75.48373135 eV

  energy without entropy =      -75.48373135  energy(sigma->0) =      -75.48373135
  exchange ACFDT corr.  =        -0.00000000  see jH, gK, PRB 81, 115126

[...]

--------------------------------------- Iteration      1(   4)  ---------------------------------------

 eigenvalue-minimisations  :     0
 total energy-change (2. order) :-0.6257528E-06  (-0.3840077E-06)
 number of electron      72.0000051 magnetization      12.0000027
 augmentation part       27.1080593 magnetization       8.0598696

 Free energy of the ion-electron system (eV)
  alpha Z        PSCENC =       230.06133586
  Ewald energy   TEWEN  =     -5521.36491186
  -Hartree energ DENC   =     -2963.85791987
  -exchange      EXHF   =       213.00444101
  -V(xc)+E(xc)   XCENC  =       244.09214383
  PAW double counting   =      9312.08519229    -9579.50813241
  entropy T*S    EENTRO =        -0.00000000
  eigenvalues    EBANDS =     -1178.76698832
  atomic energy  EATOM  =      9168.77127541
  free energy    TOTEN  =       -75.48373872 eV

  energy without entropy =      -75.48373872  energy(sigma->0) =      -75.48373872
  exchange ACFDT corr.  =        -0.00000000  see jH, gK, PRB 81, 115126

  average scaling for gradient   0.9369

 average (electrostatic) potential at core
  the test charge radii are     0.7079  0.7215  0.9698  0.9500
  (the norm of the test charge is              1.0000)
       1 -53.2788       2 -53.2788       3 -63.7053       4 -63.7053       5 -81.8986
       6 -81.8986       7 -71.4178       8 -71.4178       9 -71.0574

 E-fermi :   5.2649     XC(G=0):  -8.7090     alpha+bet :-12.2305

 Fermi energy:         5.2649454646

 spin component 1

 k-point     1 :       0.0000    0.0000    0.0000
  band No.  band energies     occupation
      1     -56.0347      1.00000
      2     -56.0325      1.00000
      3     -55.7283      1.00000
      4     -54.7589      1.00000
      5     -54.7565      1.00000
      6     -54.4429      1.00000
      7     -54.4131      1.00000
      8     -54.3037      1.00000
      9     -54.1589      1.00000
     10     -43.4941      1.00000
     11     -43.4930      1.00000
     12     -16.1681      1.00000
     13     -16.0439      1.00000
     14      -9.2381      1.00000
     15      -8.6847      1.00000
     16      -2.7832      1.00000
     17      -2.2463      1.00000
     18      -2.0766      1.00000
     19      -1.9292      1.00000
     20      -1.6503      1.00000
     21      -1.2235      1.00000
     22      -0.7075      1.00000
     23      -0.6271      1.00000
     24      -0.5805      1.00000
     25      -0.2697      1.00000
     26      -0.2037      1.00000
     27       0.0342      1.00000
     28       0.1038      1.00000
     29       0.1233      1.00000
     30       0.2927      1.00000
     31       0.6115      1.00000
     32       0.7248      1.00000
     33       0.8410      1.00000
     34       1.2543      1.00000
     35       2.0311      1.00000
     36       2.1098      1.00000
     37       2.4206      1.00000
     38       3.4029      1.00000
     39       3.5684      1.00000
     40       3.5797      1.00000
     41       4.3535      1.00000
     42       4.4093      1.00000
     43       7.7725      0.00000
     44       8.2398      0.00000
     45       9.8342      0.00000
     46      10.2689      0.00000
     47      11.6686      0.00000
     48      12.6043      0.00000
     49      13.2702      0.00000
     50      15.1995      0.00000
     51      15.2617      0.00000
     52      16.7348      0.00000

[...]

 k-point    28 :       0.5000    0.5000    0.5000
  band No.  band energies     occupation
      1     -56.0372      1.00000
      2     -56.0351      1.00000
      3     -55.7279      1.00000
      4     -54.7592      1.00000
      5     -54.7563      1.00000
      6     -54.4431      1.00000
      7     -54.4132      1.00000
      8     -54.3035      1.00000
      9     -54.1601      1.00000
     10     -43.4926      1.00000
     11     -43.4926      1.00000
     12     -15.9733      1.00000
     13     -15.7607      1.00000
     14      -8.6029      1.00000
     15      -8.5765      1.00000
     16      -3.2354      1.00000
     17      -2.9406      1.00000
     18      -2.5091      1.00000
     19      -2.2470      1.00000
     20      -2.0602      1.00000
     21      -1.5017      1.00000
     22      -1.4554      1.00000
     23      -1.1743      1.00000
     24      -1.0682      1.00000
     25      -0.7248      1.00000
     26      -0.2869      1.00000
     27      -0.2531      1.00000
     28       0.1021      1.00000
     29       0.1188      1.00000
     30       0.4992      1.00000
     31       0.8720      1.00000
     32       0.9339      1.00000
     33       1.0945      1.00000
     34       1.6470      1.00000
     35       1.6885      1.00000
     36       1.9638      1.00000
     37       2.3436      1.00000
     38       3.5858      1.00000
     39       3.6571      1.00000
     40       3.9971      1.00000
     41       4.2278      1.00000
     42       4.4672      1.00000
     43       9.0560      0.00000
     44       9.3377      0.00000
     45       9.4202      0.00000
     46      10.4710      0.00000
     47      11.8175      0.00000
     48      12.2091      0.00000
     49      13.0174      0.00000
     50      13.3037      0.00000
     51      14.5903      0.00000
     52      14.8156      0.00000
 Fermi energy:         5.2649454646

 spin component 2

[...]

 k-point    28 :       0.5000    0.5000    0.5000
  band No.  band energies     occupation
      1     -49.4576      1.00000
      2     -49.4530      1.00000
      3     -49.4215      1.00000
      4     -49.3835      1.00000
      5     -49.3820      1.00000
      6     -49.3810      1.00000
      7     -49.0617      1.00000
      8     -49.0328      1.00000
      9     -49.0222      1.00000
     10     -43.4992      1.00000
     11     -43.4990      1.00000
     12     -15.4718      1.00000
     13     -15.2664      1.00000
     14      -8.2622      1.00000
     15      -8.2545      1.00000
     16      -2.1218      1.00000
     17      -1.9555      1.00000
     18      -1.4449      1.00000
     19      -0.7815      1.00000
     20      -0.0947      1.00000
     21       0.6435      1.00000
     22       0.9375      1.00000
     23       1.0171      1.00000
     24       1.5805      1.00000
     25       2.0496      1.00000
     26       2.6845      1.00000
     27       2.9297      1.00000
     28       3.3872      1.00000
     29       4.0812      1.00000
     30       4.2896      1.00000
     31       7.3953      0.00000
     32       7.5810      0.00000
     33       7.7760      0.00000
     34       8.3346      0.00000
     35       8.5312      0.00000
     36       8.7496      0.00000
     37       9.1246      0.00000
     38       9.1583      0.00000
     39       9.1825      0.00000
     40       9.5022      0.00000
     41       9.7694      0.00000
     42       9.9509      0.00000
     43       9.9653      0.00000
     44      10.6996      0.00000
     45      11.1917      0.00000
     46      11.6809      0.00000
     47      12.5868      0.00000
     48      13.2701      0.00000
     49      13.8424      0.00000
     50      14.6319      0.00000
     51      15.4678      0.00000
     52      16.1336      0.00000

 soft charge-density along one line, spin component           1
         0         1         2         3         4         5         6         7         8         9
 total charge-density along one line

 soft charge-density along one line, spin component           2
         0         1         2         3         4         5         6         7         8         9
 total charge-density along one line

------------------------ aborting loop because EDIFF is reached ----------------------------------------

 total charge

# of ion       s       p       d       tot
    1        2.019   0.062   0.000   2.082
    2        2.019   0.062   0.000   2.082
    3        1.555   3.543   0.000   5.098
    4        1.555   3.543   0.000   5.098
    5        1.308   2.447   0.000   3.755
    6        1.308   2.447   0.000   3.755
    7        0.260   6.256   5.905  12.421
    8        0.260   6.256   5.905  12.421
    9        0.247   6.242   5.916  12.405
tot         10.530  30.859  17.727  59.117

 magnetization (x)

[...]

  FORCE on cell =-STRESS in cart. coord.  units (eV):
  Direction    XX          YY          ZZ          XY          YZ          ZX
  Alpha Z   230.06134   230.06134   230.06134
  Ewald   -1434.10616 -2026.60977 -2060.65584    -0.00000  -456.33716    -0.00000
  Hartree  1294.54008   848.84029   820.48200     0.00001  -380.10782    -0.00000
  E(xc)    -303.53534  -303.94232  -303.94301     0.00000    -0.00919    -0.00000
  Local   -1009.54391     1.00833    63.11396    -0.00001   832.45177     0.00000
  n-local   287.37224   285.12122   285.92963    -0.11549    -2.68331    -0.26310
  augment   386.08256   404.06411   404.31066    -0.00000     3.29702     0.00000
  Kinetic   908.06002   927.40696   928.68704    -0.73735     4.74707    -1.47186
  Fock     -359.03388  -366.92916  -366.87959    -0.00336    -1.30979    -0.00664
  Total      -0.10305     0.06053     0.06665     0.00000     0.08201     0.00000
  in kB      -1.38625     0.81423     0.89653     0.00000     1.10313     0.00000

 VOLUME and BASIS-vectors are now :
  energy-cutoff  :      520.00
  volume of cell :      119.11
      direct lattice vectors                 reciprocal lattice vectors
     3.782571590  0.000000000  0.000000000     0.264370409  0.000000000  0.000000000
     0.000000000  5.611261900  0.066743330     0.000000000  0.178159212  0.004524858
     0.000000000 -0.142478020  5.609849810     0.000000000 -0.002119654  0.178204057

  length of vectors
     3.782571590  5.611658826  5.611658835     0.264370409  0.178216663  0.178216663

 FORCES acting on ions:
    Electron-Ion                     Ewald-Force                    Non-Local-Force
   -.236E+00 0.122E-05 0.610E-05   0.238E+00 -.310E-15 0.213E-13   0.135E-01 0.252E-20 -.163E-20
   -.236E+00 0.152E-05 0.584E-05   0.238E+00 0.700E-14 -.947E-14   0.135E-01 -.331E-20 -.287E-20
   0.740E+00 -.634E+02 0.611E+02   -.761E+00 0.662E+02 -.638E+02   0.134E-01 -.244E+01 0.235E+01
   0.740E+00 0.634E+02 -.611E+02   -.761E+00 -.662E+02 0.638E+02   0.134E-01 0.244E+01 -.235E+01
   -.778E+00 -.403E+01 -.418E+01   0.808E+00 0.302E+01 0.313E+01   -.159E-01 0.950E+00 0.986E+00
   -.778E+00 0.403E+01 0.418E+01   0.808E+00 -.302E+01 -.313E+01   -.159E-01 -.950E+00 -.986E+00
   -.187E+00 0.697E+02 -.672E+02   0.142E+00 -.707E+02 0.682E+02   0.276E-01 0.900E+00 -.868E+00
   -.187E+00 -.697E+02 0.672E+02   0.142E+00 0.707E+02 -.682E+02   0.276E-01 -.900E+00 0.868E+00
   0.894E+00 -.925E-05 -.250E-05   -.856E+00 -.127E-15 0.109E-15   -.622E-01 0.222E-20 0.316E-19
   -.261E-01 -.263E-04 -.410E-04   -.555E-14 -.143E-13 0.143E-13   0.148E-01 0.444E-15 0.111E-15

 POSITION                                       TOTAL-FORCE (eV/Angst)
      1.19368      2.80563      0.03337         0.016200     -0.000000     -0.000000
      1.19368     -0.07124      2.80492         0.016200     -0.000000     -0.000000
      1.20454      1.29580      4.22423        -0.005775      0.008741     -0.008421
      1.20454      4.17299      1.45237        -0.005775     -0.008741      0.008421
      3.09627      1.29330      1.34244         0.013597      0.006158      0.006392
      3.09627      4.17548      4.33415         0.013597     -0.006158     -0.006392
      3.09571      3.76165      1.84864        -0.011075      0.014216     -0.013695
      3.09571      1.70713      3.82795        -0.011075     -0.014216      0.013695
      1.21671      0.00000      0.00000        -0.025892     -0.000000      0.000000
    total drift:                               -0.006069     -0.000026     -0.000041

  FREE ENERGIE OF THE ION-ELECTRON SYSTEM (eV)
  free  energy   TOTEN  =       -75.48373872 eV

  energy  without entropy=      -75.48373872  energy(sigma->0) =      -75.48373872

 reached required accuracy - stopping structural energy minimisation
 writing wavefunctions

 total charge

[...]

 magnetization (x)

# of ion       s       p       d       tot
    1       -0.001  -0.001   0.000  -0.002
    2       -0.001  -0.001   0.000  -0.002
    3        0.013   0.148   0.000   0.161
    4        0.013   0.148   0.000   0.161
    5        0.022   0.111   0.000   0.132
    6        0.022   0.111   0.000   0.132
    7        0.034   0.036   3.563   3.633
    8        0.034   0.036   3.563   3.633
    9        0.035   0.023   3.583   3.640
tot          0.169   0.610  10.709  11.489