 vasp.5.4.4.18Apr17-6-g9f103f2a35 (build Oct 25 2017 14:42:18) complex

 executed on             LinuxIFC date 2021.05.28  05:39:30

 INCAR:
 POTCAR:    PAW_PBE Li_sv 10Sep2004
 POTCAR:    PAW_PBE O 08Apr2002
 POTCAR:    PAW_PBE S 06Sep2000
 POTCAR:    PAW_PBE Fe_pv 02Aug2007

 POTCAR:    PAW_PBE Li_sv 10Sep2004

 POTCAR:    PAW_PBE O 08Apr2002

 POTCAR:    PAW_PBE S 06Sep2000

 POTCAR:    PAW_PBE Fe_pv 02Aug2007

  PAW_PBE Li_sv 10Sep2004               :
  PAW_PBE O 08Apr2002                   :
  PAW_PBE S 06Sep2000                   :
  PAW_PBE Fe_pv 02Aug2007               :

 POSCAR: # Compound: Li2O2S3Fe4. Old comment: Fe4
  positions in direct lattice
 exchange correlation table for  LEXCH =        8
   RHO(1)=    0.500       N(1)  =     2000
   RHO(2)=  100.500       N(2)  =     4000

 ion  position               nearest neighbor table
   1  0.607  0.726  0.832-   4 1.98   4 1.99   7 2.61   7 2.61
   2  0.274  0.393  0.168-   3 1.98   3 1.99   7 2.61   7 2.61
   3  0.789  0.408  0.197-   2 1.98   2 1.99  11 2.01   8 2.01  11 2.01
   4  0.592  0.211  0.803-   1 1.98   1 1.99  10 2.01   9 2.01  10 2.01
   5  0.008  0.620  0.629-   8 2.41   9 2.70   9 2.76
   6  0.380  0.992  0.371-   9 2.41   8 2.70   8 2.76
   7  0.191  0.809  0.000-  10 2.52  11 2.52  10 2.52  11 2.52   2 2.61   1 2.61   2 2.61   1 2.61

   8  0.871  0.516  0.394-   3 2.01   5 2.41   6 2.70   6 2.76
   9  0.484  0.129  0.606-   4 2.01   6 2.41   5 2.70   5 2.76
  10  0.113  0.232  0.845-   4 2.01   4 2.01   7 2.52   7 2.52
  11  0.768  0.887  0.155-   3 2.01   3 2.01   7 2.52   7 2.52

IMPORTANT INFORMATION: All symmetrisations will be switched off!
NOSYMM: (Re-)initialisation of all symmetry stuff for point group C_1.

 KPOINTS: # No comment

Automatic generation of k-mesh.
Space group operators:
 irot       det(A)        alpha          n_x          n_y          n_z        tau_x        tau_y        tau_z
    1     1.000000     0.000000     1.000000     0.000000     0.000000     0.000000     0.000000     0.000000

 Subroutine IBZKPT returns following result:

 Found     74 irreducible k-points:

 Following reciprocal coordinates:
            Coordinates               Weight
  0.000000  0.000000  0.000000      1.000000
  0.142857  0.000000 -0.000000      2.000000
  0.285714  0.000000 -0.000000      2.000000
  0.428571  0.000000 -0.000000      2.000000
  0.000000  0.142857 -0.000000      2.000000
  0.142857  0.142857 -0.000000      2.000000
  0.285714  0.142857 -0.000000      2.000000
  0.428571  0.142857 -0.000000      2.000000
 -0.428571  0.142857  0.000000      2.000000
 -0.285714  0.142857  0.000000      2.000000
 -0.142857  0.142857  0.000000      2.000000
  0.000000  0.285714 -0.000000      2.000000
  0.142857  0.285714 -0.000000      2.000000
  0.285714  0.285714 -0.000000      2.000000
  0.428571  0.285714  0.000000      2.000000
 -0.428571  0.285714  0.000000      2.000000
 -0.285714  0.285714 -0.000000      2.000000
 -0.142857  0.285714 -0.000000      2.000000
  0.000000  0.428571  0.000000      2.000000
  0.142857  0.428571  0.000000      2.000000
  0.285714  0.428571  0.000000      2.000000
  0.428571  0.428571 -0.000000      2.000000
 -0.428571  0.428571  0.000000      2.000000
 -0.285714  0.428571  0.000000      2.000000
 -0.142857  0.428571  0.000000      2.000000
 -0.000000 -0.000000  0.333333      2.000000
  0.142857 -0.000000  0.333333      2.000000
  0.285714  0.000000  0.333333      2.000000
  0.428571  0.000000  0.333333      2.000000
 -0.428571 -0.000000  0.333333      2.000000
 -0.285714 -0.000000  0.333333      2.000000
 -0.142857 -0.000000  0.333333      2.000000
 -0.000000  0.142857  0.333333      2.000000
  0.142857  0.142857  0.333333      2.000000
  0.285714  0.142857  0.333333      2.000000
  0.428571  0.142857  0.333333      2.000000
 -0.428571  0.142857  0.333333      2.000000
 -0.285714  0.142857  0.333333      2.000000
 -0.142857  0.142857  0.333333      2.000000
 -0.000000  0.285714  0.333333      2.000000
  0.142857  0.285714  0.333333      2.000000
  0.285714  0.285714  0.333333      2.000000
  0.428571  0.285714  0.333333      2.000000
 -0.428571  0.285714  0.333333      2.000000
 -0.285714  0.285714  0.333333      2.000000
 -0.142857  0.285714  0.333333      2.000000
  0.000000  0.428571  0.333333      2.000000
  0.142857  0.428571  0.333333      2.000000
  0.285714  0.428571  0.333333      2.000000
  0.428571  0.428571  0.333333      2.000000
 -0.428571  0.428571  0.333333      2.000000
 -0.285714  0.428571  0.333333      2.000000
 -0.142857  0.428571  0.333333      2.000000
 -0.000000 -0.428571  0.333333      2.000000
  0.142857 -0.428571  0.333333      2.000000
  0.285714 -0.428571  0.333333      2.000000
  0.428571 -0.428571  0.333333      2.000000
 -0.428571 -0.428571  0.333333      2.000000
 -0.285714 -0.428571  0.333333      2.000000
 -0.142857 -0.428571  0.333333      2.000000
 -0.000000 -0.285714  0.333333      2.000000
  0.142857 -0.285714  0.333333      2.000000
  0.285714 -0.285714  0.333333      2.000000
  0.428571 -0.285714  0.333333      2.000000
 -0.428571 -0.285714  0.333333      2.000000
 -0.285714 -0.285714  0.333333      2.000000
 -0.142857 -0.285714  0.333333      2.000000
 -0.000000 -0.142857  0.333333      2.000000
  0.142857 -0.142857  0.333333      2.000000
  0.285714 -0.142857  0.333333      2.000000
  0.428571 -0.142857  0.333333      2.000000
 -0.428571 -0.142857  0.333333      2.000000
 -0.285714 -0.142857  0.333333      2.000000
 -0.142857 -0.142857  0.333333      2.000000

 Following cartesian coordinates:
            Coordinates               Weight
  0.000000  0.000000  0.000000      1.000000
  0.036347  0.000051  0.007218      2.000000
  0.072694  0.000102  0.014437      2.000000
  0.109042  0.000153  0.021655      2.000000
 -0.000069  0.036347  0.007218      2.000000
  0.036279  0.036398  0.014437      2.000000
  0.072626  0.036449  0.021655      2.000000
  0.108973  0.036500  0.028874      2.000000
 -0.109110  0.036194 -0.014437      2.000000
 -0.072763  0.036245 -0.007218      2.000000
 -0.036416  0.036296 -0.000000      2.000000
 -0.000137  0.072694  0.014437      2.000000
  0.036210  0.072745  0.021655      2.000000
  0.072557  0.072796  0.028874      2.000000
  0.108904  0.072847  0.036092      2.000000
 -0.109179  0.072541 -0.007218      2.000000
 -0.072832  0.072592 -0.000000      2.000000
 -0.036485  0.072643  0.007218      2.000000
 -0.000206  0.109042  0.021655      2.000000
  0.036141  0.109093  0.028874      2.000000
  0.072489  0.109144  0.036092      2.000000
  0.108836  0.109195  0.043310      2.000000
 -0.109248  0.108889 -0.000000      2.000000
 -0.072900  0.108940  0.007218      2.000000
 -0.036553  0.108991  0.014437      2.000000
 -0.000192 -0.000192  0.032649      2.000000
  0.036155 -0.000141  0.039868      2.000000
  0.072503 -0.000090  0.047086      2.000000
  0.108850 -0.000039  0.054304      2.000000
 -0.109234 -0.000345  0.010994      2.000000
 -0.072886 -0.000294  0.018212      2.000000
 -0.036539 -0.000243  0.025431      2.000000
 -0.000260  0.036155  0.039868      2.000000
  0.036087  0.036206  0.047086      2.000000
  0.072434  0.036257  0.054304      2.000000
  0.108781  0.036308  0.061523      2.000000
 -0.109302  0.036002  0.018212      2.000000
 -0.072955  0.036053  0.025431      2.000000
 -0.036608  0.036104  0.032649      2.000000
 -0.000329  0.072502  0.047086      2.000000
  0.036018  0.072553  0.054304      2.000000
  0.072365  0.072604  0.061523      2.000000
  0.108713  0.072655  0.068741      2.000000
 -0.109371  0.072349  0.025431      2.000000
 -0.073024  0.072400  0.032649      2.000000
 -0.036676  0.072451  0.039868      2.000000
 -0.000398  0.108849  0.054304      2.000000
  0.035950  0.108900  0.061523      2.000000
  0.072297  0.108951  0.068741      2.000000
  0.108644  0.109002  0.075960      2.000000
 -0.109439  0.108696  0.032649      2.000000
 -0.073092  0.108747  0.039868      2.000000
 -0.036745  0.108798  0.047086      2.000000
  0.000014 -0.109234  0.010994      2.000000
  0.036361 -0.109183  0.018212      2.000000
  0.072709 -0.109132  0.025431      2.000000
  0.109056 -0.109081  0.032649      2.000000
 -0.109028 -0.109387 -0.010661      2.000000
 -0.072680 -0.109336 -0.003443      2.000000
 -0.036333 -0.109285  0.003775      2.000000
 -0.000055 -0.072887  0.018212      2.000000
  0.036293 -0.072836  0.025431      2.000000
  0.072640 -0.072785  0.032649      2.000000
  0.108987 -0.072734  0.039868      2.000000
 -0.109096 -0.073040 -0.003443      2.000000
 -0.072749 -0.072989  0.003775      2.000000
 -0.036402 -0.072938  0.010994      2.000000
 -0.000123 -0.036540  0.025431      2.000000
  0.036224 -0.036489  0.032649      2.000000
  0.072571 -0.036438  0.039868      2.000000
  0.108919 -0.036387  0.047086      2.000000
 -0.109165 -0.036693  0.003775      2.000000
 -0.072818 -0.036642  0.010994      2.000000
 -0.036470 -0.036591  0.018212      2.000000

 Subroutine IBZKPT_HF returns following result:

 Found    147 k-points in 1st BZ
 the following    147 k-points will be used (e.g. in the exchange kernel)
 Following reciprocal coordinates:   # in IRBZ
  0.000000  0.000000  0.000000    0.00680272   1 t-inv F
  0.142857  0.000000 -0.000000    0.00680272   2 t-inv F
  0.285714  0.000000 -0.000000    0.00680272   3 t-inv F
  0.428571  0.000000 -0.000000    0.00680272   4 t-inv F
  0.000000  0.142857 -0.000000    0.00680272   5 t-inv F
  0.142857  0.142857 -0.000000    0.00680272   6 t-inv F
  0.285714  0.142857 -0.000000    0.00680272   7 t-inv F
  0.428571  0.142857 -0.000000    0.00680272   8 t-inv F
 -0.428571  0.142857  0.000000    0.00680272   9 t-inv F
 -0.285714  0.142857  0.000000    0.00680272  10 t-inv F
 -0.142857  0.142857  0.000000    0.00680272  11 t-inv F
  0.000000  0.285714 -0.000000    0.00680272  12 t-inv F
  0.142857  0.285714 -0.000000    0.00680272  13 t-inv F
  0.285714  0.285714 -0.000000    0.00680272  14 t-inv F
  0.428571  0.285714  0.000000    0.00680272  15 t-inv F
 -0.428571  0.285714  0.000000    0.00680272  16 t-inv F
 -0.285714  0.285714 -0.000000    0.00680272  17 t-inv F
 -0.142857  0.285714 -0.000000    0.00680272  18 t-inv F
  0.000000  0.428571  0.000000    0.00680272  19 t-inv F
  0.142857  0.428571  0.000000    0.00680272  20 t-inv F
  0.285714  0.428571  0.000000    0.00680272  21 t-inv F
  0.428571  0.428571 -0.000000    0.00680272  22 t-inv F
 -0.428571  0.428571  0.000000    0.00680272  23 t-inv F
 -0.285714  0.428571  0.000000    0.00680272  24 t-inv F
 -0.142857  0.428571  0.000000    0.00680272  25 t-inv F
 -0.000000 -0.000000  0.333333    0.00680272  26 t-inv F
  0.142857 -0.000000  0.333333    0.00680272  27 t-inv F
  0.285714  0.000000  0.333333    0.00680272  28 t-inv F
  0.428571  0.000000  0.333333    0.00680272  29 t-inv F
 -0.428571 -0.000000  0.333333    0.00680272  30 t-inv F
 -0.285714 -0.000000  0.333333    0.00680272  31 t-inv F
 -0.142857 -0.000000  0.333333    0.00680272  32 t-inv F
 -0.000000  0.142857  0.333333    0.00680272  33 t-inv F
  0.142857  0.142857  0.333333    0.00680272  34 t-inv F
  0.285714  0.142857  0.333333    0.00680272  35 t-inv F
  0.428571  0.142857  0.333333    0.00680272  36 t-inv F
[...]
     59      10.4888      0.00000
     60      11.0512      0.00000
     61      11.4481      0.00000
     62      11.8032      0.00000
     63      11.8329      0.00000
     64      12.2656      0.00000
     65      14.2093      0.00000
     66      14.3631      0.00000
     67      14.3794      0.00000
     68      14.6425      0.00000
     69      14.6702      0.00000
     70      15.6028      0.00000
     71      15.9760      0.00000
     72      16.1187      0.00000

[...]

 spin component 2

[...]

 k-point    74 :      -0.1429   -0.1429    0.3333
  band No.  band energies     occupation
      1     -46.2948      1.00000
      2     -46.2923      1.00000
      3     -46.2635      1.00000
      4     -46.2634      1.00000
      5     -45.9295      1.00000
      6     -45.9294      1.00000
      7     -45.8558      1.00000
      8     -45.8553      1.00000
      9     -45.8453      1.00000
     10     -45.8448      1.00000
     11     -45.8400      1.00000
     12     -45.8395      1.00000
     13     -39.8611      1.00000
     14     -39.8610      1.00000
     15     -12.7866      1.00000
     16     -12.7637      1.00000
     17      -7.2414      1.00000
     18      -7.1056      1.00000
     19      -6.6170      1.00000
     20       0.2074      1.00000
     21       0.6108      1.00000
     22       0.7190      1.00000
     23       0.8650      1.00000
     24       1.0094      1.00000
     25       1.2495      1.00000
     26       1.6168      1.00000
     27       1.8320      1.00000
     28       2.5025      1.00000
     29       2.6248      1.00000
     30       2.8415      1.00000
     31       2.9553      1.00000
     32       3.2205      1.00000
     33       3.3280      1.00000
     34       3.4727      1.00000
     35       3.8807      1.00000
     36       4.0069      1.00000
     37       4.3524      1.00000
     38       4.5322      1.00000
     39       7.0569      0.00000
     40       7.2042      0.00000
     41       7.3672      0.00000
     42       7.4924      0.00000
     43       7.5621      0.00000
     44       7.6811      0.00000
     45       7.8946      0.00000
     46       7.9615      0.00000
     47       7.9963      0.00000
     48       8.1544      0.00000
     49       8.3005      0.00000
     50       8.3563      0.00000
     51       8.5102      0.00000
     52       8.6647      0.00000
     53       8.8765      0.00000
     54       9.0713      0.00000
     55       9.6845      0.00000
     56      10.2381      0.00000
     57      10.8585      0.00000
     58      11.1114      0.00000
     59      11.6671      0.00000
     60      11.6819      0.00000
     61      12.2348      0.00000
     62      12.3645      0.00000
     63      12.5536      0.00000
     64      12.8519      0.00000
     65      13.5042      0.00000
     66      13.9462      0.00000
     67      14.2497      0.00000
     68      14.4324      0.00000
     69      15.2759      0.00000
     70      15.7860      0.00000
     71      16.0145      0.00000
     72      16.8285      0.00000

 soft charge-density along one line, spin component           1
         0         1         2         3         4         5         6         7         8         9
 total charge-density along one line

 soft charge-density along one line, spin component           2
         0         1         2         3         4         5         6         7         8         9
 total charge-density along one line

------------------------ aborting loop because EDIFF is reached ----------------------------------------

  FORCE on cell =-STRESS in cart. coord.  units (eV):
  Direction    XX          YY          ZZ          XY          YZ          ZX
  Alpha Z   289.58280   289.58280   289.58280
  Ewald   -2457.05864 -2457.07147 -2308.95566    -1.94936   -20.62180   -20.55402
  Hartree  1242.49825  1242.45580  1301.92105    -0.73739   -14.97127   -14.92104
  E(xc)    -513.27495  -513.27486  -513.05200    -0.00453    -0.00911    -0.00909
  Local    -294.94638  -294.84376  -484.05103     2.45025    35.27019    35.15164
  n-local    15.63847    15.64056    25.18241    -0.11155    -0.09846    -0.09872
  augment   570.89634   570.86522   559.59406     0.12864     0.17764     0.17751
  Kinetic  1146.66294  1146.64630  1129.77809     0.22397     0.25327     0.25311
  Fock        0.00000     0.00000     0.00000     0.00000     0.00000     0.00000
  Total      -0.00117     0.00060    -0.00029     0.00005     0.00046    -0.00061
  in kB      -0.01196     0.00607    -0.00294     0.00046     0.00465    -0.00619

 VOLUME and BASIS-vectors are now :
  energy-cutoff  :      650.00
  volume of cell :      157.35
      direct lattice vectors                 reciprocal lattice vectors
     3.925756580  0.002829570  0.023077720     0.254430675  0.000357174  0.050528887
    -0.010094160  3.925744620  0.023077720    -0.000480422  0.254430473  0.050528887
    -2.020002310 -2.026663200 10.185746220    -0.000575372 -0.000577269  0.097947445

  length of vectors
     3.925825431  3.925825428 10.580037765     0.259399816  0.259399816  0.097950836

 FORCES acting on ions
    electron-ion (+dipol)            ewald-force                    non-local-force                 convergence-correction
   -.267E+00 -.482E+00 -.341E+02   0.270E+00 0.533E+00 0.340E+02   -.219E-02 -.514E-01 0.128E+00   0.825E-06 0.210E-05 -.112E-04
   0.481E+00 0.269E+00 0.341E+02   -.532E+00 -.271E+00 -.340E+02   0.514E-01 0.236E-02 -.128E+00   -.228E-05 -.100E-05 0.115E-04
   -.673E+01 0.225E+01 0.124E+03   0.701E+01 -.233E+01 -.129E+03   -.285E+00 0.763E-01 0.454E+01   0.852E-05 -.732E-05 0.454E-04
   -.227E+01 0.672E+01 -.124E+03   0.235E+01 -.701E+01 0.129E+03   -.771E-01 0.285E+00 -.454E+01   0.489E-05 -.682E-05 -.448E-04
   0.468E+01 -.113E+02 -.319E+02   -.476E+01 0.114E+02 0.324E+02   0.835E-01 -.135E+00 -.499E+00   -.543E-05 0.306E-05 -.301E-04
   0.113E+02 -.464E+01 0.319E+02   -.114E+02 0.472E+01 -.324E+02   0.135E+00 -.829E-01 0.499E+00   -.223E-05 0.498E-05 0.298E-04
   -.145E-01 0.145E-01 0.550E-05   0.178E-01 -.177E-01 0.173E-06   -.325E-02 0.324E-02 -.360E-05   0.480E-06 -.391E-06 0.494E-06
   -.271E+01 0.423E+01 -.185E+03   0.203E+01 -.384E+01 0.183E+03   0.688E+00 -.390E+00 0.230E+01   0.103E-04 -.800E-05 0.460E-04
   -.424E+01 0.270E+01 0.185E+03   0.385E+01 -.201E+01 -.183E+03   0.392E+00 -.687E+00 -.230E+01   0.769E-05 -.112E-04 -.473E-04
   0.378E+01 0.507E+01 -.201E+03   -.386E+01 -.508E+01 0.203E+03   0.803E-01 0.126E-01 -.198E+01   0.449E-05 -.812E-05 -.312E-04
   -.506E+01 -.380E+01 0.201E+03   0.507E+01 0.388E+01 -.203E+03   -.123E-01 -.803E-01 0.198E+01   0.890E-05 -.337E-05 0.325E-04
   -.105E+01 0.105E+01 0.690E-05   0.888E-15 -.977E-14 -.114E-12   0.105E+01 -.105E+01 -.890E-05   0.362E-04 -.361E-04 0.110E-05

 POSITION                                       TOTAL-FORCE (eV/Angst)
      0.69431      1.16678      8.50361         0.000017      0.000033      0.000028
      0.73117      1.20377      1.72829        -0.000018     -0.000016      0.000037
      2.69694      1.20483      2.03281        -0.000087      0.000102     -0.000093
      0.69972     -0.79898      8.19910        -0.000073      0.000128      0.000094
     -1.24734      1.15770      6.42338         0.000022      0.000053      0.000121
      0.73386      3.14543      3.80852         0.000061      0.000035     -0.000085
      0.73979      3.17832      0.02308        -0.000005      0.000007      0.000003
      2.61849      1.23237      4.04033        -0.000025     -0.000115      0.000027
      0.67192     -0.72062      6.19157         0.000008     -0.000143     -0.000020
     -1.26712     -0.80254      8.61927         0.000066     -0.000033     -0.000028
      2.69403      3.17166      1.61263         0.000034     -0.000052     -0.000085
    total drift:                                0.000129     -0.000128     -0.000001

  FREE ENERGIE OF THE ION-ELECTRON SYSTEM (eV)
  free  energy   TOTEN  =       -61.14745215 eV

  energy  without entropy=      -61.14745215  energy(sigma->0) =      -61.14745215

 Linear response reoptimize wavefunctions
 Linear response G [H, r] |phi>, progress :
  Direction:   1

----------------------------------------- Iteration    1(   1)  ---------------------------------------

  free energy    TOTEN  =      -294.39820975 eV

[...]

 Linear response G [H, r] |phi>, progress :
  Direction:   2

[...]

 Linear response G [H, r] |phi>, progress :
  Direction:   3

[...]

  free energy    TOTEN  =      -404.97677893 eV

[...]

 Linear response to external field (no local field effect), progress :
  Direction:   1

[...]

 Free energy of the ion-electron system (eV)
  -Hartree energ DENC   =         0.00000000
  -V(xc)+E(xc)   XCENC  =         0.00000000
  PAW double counting   =         0.00000000        0.00000000
  entropy T*S    EENTRO =         0.00000000
  eigenvalues    EBANDS =        -1.53021742
  free energy    TOTEN  =        -1.53021742 eV

  energy without entropy =       -1.53021742

[...]

 change of polarisation eV/A/(eV/A) component  1 :     4.836     0.011    -0.004
 dielectric tensor                  component  1 :     6.562     0.012    -0.005

[...]

 Linear response to external field (no local field effect), progress :
  Direction:   3

[...]

 HEAD OF MICROSCOPIC STATIC DIELECTRIC TENSOR (INDEPENDENT PARTICLE, excluding Hartree and local field effects)
           6.561940     0.012426    -0.004605
           0.012415     6.561312    -0.004617
          -0.004575    -0.004603     6.738377

 Linear response to external field, progress :
  Direction:   1

[...]

 PIEZOELECTRIC TENSOR FIELD DIRECTION 1  (e Angst)
    -0.33920 -0.06089  0.67646           ( -0.02859  0.01924 -0.04540)
    -0.06049  0.10412  0.00060           (  0.01924 -0.02141 -0.00030)
     0.67047  0.00057 -0.16147           ( -0.04540 -0.00030 -0.00751)

 PIEZOELECTRIC TENSOR FIELD DIRECTION 1  (C/m^2)
    -0.03454 -0.00620  0.06888
    -0.00616  0.01060  0.00006
     0.06827  0.00006 -0.01644

      POSITION         DIRECTION 1           BORN EFFECTIVE CHARGE    (rigid.aug.   ionic)
      0.69431      1.16678      8.50361     1.33782  0.00029  0.00079 ( -0.95507  3.00000)
      0.73117      1.20377      1.72829     0.99462 -0.00075  0.00528 ( -0.95507  3.00000)
      2.69694      1.20483      2.03281    -1.92729 -0.00046  0.01425 ( -0.63807  6.00000)
      0.69972     -0.79898      8.19910    -3.34036 -0.00402 -0.01209 ( -0.63807  6.00000)
     -1.24734      1.15770      6.42338    -2.38399 -0.01487 -0.01198 (  0.81957  6.00000)
      0.73386      3.14543      3.80852    -2.49329 -0.01322  0.01323 (  0.81957  6.00000)
      0.73979      3.17832      0.02308    -1.74133  0.00276  0.00516 (  0.81373  6.00000)
      2.61849      1.23237      4.04033     2.42135  0.01786  0.02011 ( -8.50464 14.00000)
      0.67192     -0.72062      6.19157     2.40565  0.01746 -0.03353 ( -8.50464 14.00000)
     -1.26712     -0.80254      8.61927     2.59618 -0.00141 -0.00101 ( -8.49841 14.00000)
      2.69403      3.17166      1.61263     2.12009 -0.00375 -0.00023 ( -8.49840 14.00000)
    total drift (improves with k-points):  -0.01054 -0.00013 -0.00002

[...]

 Linear response to external field, progress :
  Direction:   3

[...]

----------------------------------------- Iteration    3(  36)  ---------------------------------------

 Broyden mixing:
  rms(total) = 0.27375E-05    rms(broyden)= 0.27357E-05
  rms(prec ) = 0.28194E-05
  weight for this iteration     100.00

 eigenvalues of (default mixing * dielectric matrix)
  average eigenvalue GAMMA=   2.9975
 26.0644 20.3619 11.6379  5.0397  4.6024  4.4274  2.9238  2.6118  2.5467  2.2190
  1.9176  1.4060  1.4060  1.2203  1.1061  0.9794  0.9794  0.8568  0.8161  0.8161
  0.7590  0.7387  0.7387  0.6866  0.6395  0.6395  0.6258  0.6258  0.6073  0.5350
  0.1914  0.4509  0.4509  0.2881

 Free energy of the ion-electron system (eV)
  -Hartree energ DENC   =        -0.28478199
  -V(xc)+E(xc)   XCENC  =         0.00748913
  PAW double counting   =         1.25905048       -1.14163467
  entropy T*S    EENTRO =         0.00000000
  eigenvalues    EBANDS =        -2.43843208
  free energy    TOTEN  =        -2.59830914 eV

  energy without entropy =       -2.59830914

------------------------ aborting loop because EDIFF is reached ----------------------------------------

 change of polarisation eV/A/(eV/A) component  3 :    -0.003    -0.003     4.680
 dielectric tensor                  component  3 :    -0.004    -0.004     6.382

 PIEZOELECTRIC TENSOR FIELD DIRECTION 3  (e Angst)
     1.09515  0.00385 -0.17521           ( -0.02798 -0.00009  0.00624)
     0.00383 -1.09647  0.17565           ( -0.00009  0.02799 -0.00621)
    -0.17370  0.17424  0.00161           (  0.00624 -0.00621 -0.00001)

 PIEZOELECTRIC TENSOR FIELD DIRECTION 3  (C/m^2)
     0.11151  0.00039 -0.01784
     0.00039 -0.11165  0.01789
    -0.01769  0.01774  0.00016

      POSITION         DIRECTION 3           BORN EFFECTIVE CHARGE    (rigid.aug.   ionic)
      0.69431      1.16678      8.50361     0.00211 -0.00130  1.39909 ( -0.95507  3.00000)
      0.73117      1.20377      1.72829    -0.00135  0.00214  1.39911 ( -0.95507  3.00000)
      2.69694      1.20483      2.03281     0.03071 -0.01898 -2.54190 ( -0.63807  6.00000)
      0.69972     -0.79898      8.19910    -0.01905  0.03091 -2.54182 ( -0.63807  6.00000)
     -1.24734      1.15770      6.42338    -0.01980  0.02019 -2.36378 (  0.81957  6.00000)
      0.73386      3.14543      3.80852     0.02010 -0.01988 -2.36405 (  0.81957  6.00000)
      0.73979      3.17832      0.02308     0.00604  0.00585 -2.59076 (  0.81373  6.00000)
      2.61849      1.23237      4.04033     0.01003 -0.02745  2.36161 ( -8.50464 14.00000)
      0.67192     -0.72062      6.19157    -0.02762  0.00980  2.36130 ( -8.50464 14.00000)
     -1.26712     -0.80254      8.61927     0.00585 -0.00671  2.44173 ( -8.49841 14.00000)
      2.69403      3.17166      1.61263    -0.00695  0.00556  2.44221 ( -8.49840 14.00000)
    total drift (improves with k-points):   0.00007  0.00012  0.00274

 MACROSCOPIC STATIC DIELECTRIC TENSOR (including local field effects in DFT)
           6.314459     0.016162    -0.003609
           0.016132     6.313868    -0.003634
          -0.003585    -0.003658     6.381625

 MACROSCOPIC STATIC DIELECTRIC TENSOR (including local field effects in DFT)
           6.314459     0.016162    -0.003609
           0.016132     6.313868    -0.003634
          -0.003585    -0.003658     6.381625

 PIEZOELECTRIC TENSOR  for field in x, y, z        (e  Angst)
          XX          YY          ZZ          XY          YZ          ZX
  x    -0.33920     0.10412    -0.16147    -0.06049     0.00057     0.67646
  y    -0.11921     0.35373     0.16105     0.06150    -0.66977     0.00352
  z     1.09515    -1.09647     0.00161     0.00383     0.17424    -0.17521

 PIEZOELECTRIC TENSOR  for field in x, y, z        (C/m^2)
          XX          YY          ZZ          XY          YZ          ZX
  x    -0.03454     0.01060    -0.01644    -0.00616     0.00006     0.06888
  y    -0.01214     0.03602     0.01640     0.00626    -0.06820     0.00036
  z     0.11151    -0.11165     0.00016     0.00039     0.01774    -0.01784

 BORN EFFECTIVE CHARGES (in e, cummulative output)
 ion    1
    1     1.33878     0.00030     0.00079
    2     0.00039     0.99554     0.00533
    3     0.00210    -0.00131     1.39884
 ion    2
    1     0.99558    -0.00074     0.00528
    2    -0.00083     1.33876     0.00078
    3    -0.00135     0.00213     1.39886
 ion    3
    1    -1.92633    -0.00045     0.01425
    2     0.00064    -3.33959    -0.01233
    3     0.03071    -0.01899    -2.54215
 ion    4
    1    -3.33940    -0.00401    -0.01209
    2    -0.00509    -1.92643     0.01410
    3    -0.01906     0.03090    -2.54207
 ion    5
    1    -2.38303    -0.01485    -0.01198
    2    -0.01292    -2.49181     0.01323
    3    -0.01981     0.02018    -2.36403
 ion    6
    1    -2.49234    -0.01321     0.01324
    2    -0.01521    -2.38241    -0.01186
    3     0.02009    -0.01989    -2.36430
 ion    7
    1    -1.74037     0.00277     0.00516
    2     0.00275    -1.74031     0.00509
    3     0.00603     0.00584    -2.59101
 ion    8
    1     2.42231     0.01787     0.02011
    2     0.01755     2.40639    -0.03342
    3     0.01003    -0.02746     2.36136
 ion    9
    1     2.40661     0.01747    -0.03353
    2     0.01784     2.42194     0.01996
    3    -0.02763     0.00978     2.36105
 ion   10
    1     2.59713    -0.00139    -0.00101
    2    -0.00216     2.12090    -0.00015
    3     0.00585    -0.00672     2.44148
 ion   11
    1     2.12105    -0.00374    -0.00022
    2    -0.00296     2.59701    -0.00074
    3    -0.00696     0.00555     2.44196