 vasp.6.2.0 18Jan21 (build Feb  9 2021 11:43:09) complex
 executed on       CrayXC_GCC_OMP date 2021.04.16  05:35:09

 INCAR:
   AEXX = 0.25
   ALGO = all
   EDIFF = 2e-05
   EDIFFG = -0.03
   ENCUT = 520
   GGA = pe
   HFSCREEN = 0.207
   IBRION = 2
   ISIF = 3
   ISMEAR = 0
   ISPIN = 2
   KPAR = 24
   LASPH = .TRUE.
   LHFCALC = .TRUE.
   LMAXFOCK = 4
   LORBIT = 11
   LREAL = .FALSE.
   LVHAR = .TRUE.
   LWAVE = .TRUE.
   MAGMOM = 0.6 0.6 0.6 0.6 0.6 0.6 0.6 0.6 0.6 0.6 0.6 0.6 0.6 0.6 0.6 0.6 5 5 5 5
   NCORE = 1
   NEDOS = 2000
   NELM = 200
   NELMIN = 4
   NSW = 60
   NWRITE = 1
   PREC = accurate
   PRECFOCK = fast
   SIGMA = 0.05
   TIME = 0.3

 POTCAR:    PAW_PBE Li_sv 10Sep2004
 POTCAR:    PAW_PBE O 08Apr2002
 POTCAR:    PAW_PBE S 06Sep2000
 POTCAR:    PAW_PBE Fe_pv 02Aug2007
 POTCAR:    PAW_PBE Li_sv 10Sep2004

 POTCAR:    PAW_PBE O 08Apr2002

 POTCAR:    PAW_PBE S 06Sep2000

 POTCAR:    PAW_PBE Fe_pv 02Aug2007

  PAW_PBE Li_sv 10Sep2004               :
  PAW_PBE O 08Apr2002                   :
  PAW_PBE S 06Sep2000                   :
  PAW_PBE Fe_pv 02Aug2007               :

 POSCAR: # Compound: Li8O2S6Fe4. Old comment: Fe4
  positions in direct lattice
 exchange correlation table for  LEXCH =        8
   RHO(1)=    0.500       N(1)  =     2000
   RHO(2)=  100.500       N(2)  =     4000

 ion  position               nearest neighbor table
   1  0.806  0.117  0.660-  10 1.91  13 2.34  11 2.48  12 2.53   5 2.56
   2  0.194  0.617  0.660-   9 1.91  14 2.34  12 2.48  11 2.53   6 2.56
   3  0.194  0.184  0.225-   9 1.91  14 2.34  15 2.48  16 2.53   6 2.56
   4  0.806  0.684  0.225-  10 1.91  13 2.34  16 2.48  15 2.53   5 2.56
   5  0.857  0.584  0.442-  10 1.98  16 2.47  11 2.47   4 2.56   1 2.56
   6  0.143  0.084  0.442-   9 1.98  15 2.47  12 2.47   3 2.56   2 2.56
   7  0.954  0.625  0.943-  14 2.43  16 2.51  13 2.51  11 2.52
   8  0.046  0.125  0.943-  13 2.43  15 2.51  14 2.51  12 2.52
   9  0.327  0.345  0.442-   3 1.91   2 1.91  20 1.96   6 1.98  19 2.02
  10  0.673  0.845  0.442-   4 1.91   1 1.91  19 1.96   5 1.98  20 2.02
  11  0.810  0.542  0.675-  17 2.42   5 2.47   1 2.48  20 2.48   7 2.52   2 2.53
  12  0.190  0.042  0.675-  18 2.42   6 2.47   2 2.48  19 2.48   8 2.52   1 2.53
  13  0.707  0.302  0.942-  18 2.32   1 2.34   4 2.34  17 2.37   8 2.43   7 2.51
  14  0.293  0.802  0.942-  17 2.32   2 2.34   3 2.34  18 2.37   7 2.43   8 2.51
  15  0.190  0.576  0.209-  18 2.43   6 2.47   3 2.48  19 2.48   8 2.51   4 2.53
  16  0.810  0.076  0.209-  17 2.43   5 2.47   4 2.48  20 2.48   7 2.51   3 2.53
  17  0.637  0.917  0.942-  14 2.32  13 2.37  11 2.42  16 2.43
  18  0.363  0.417  0.942-  13 2.32  14 2.37  12 2.42  15 2.43
  19  0.419  0.665  0.442-  10 1.96   9 2.02  12 2.48  15 2.48
  20  0.581  0.165  0.442-   9 1.96  10 2.02  11 2.48  16 2.48

  LATTYP: Found a simple monoclinic cell.
 ALAT       =     6.0534856239
 B/A-ratio  =     1.0612223996
 C/A-ratio  =     1.2708427851
 COS(beta)  =    -0.0007080383

  Lattice vectors:

 A1 = (   0.0000000000,   6.0504490900,   0.1917133500)
 A2 = (   6.4240945400,   0.0000000000,   0.0000000000)
 A3 = (   0.0000000000,   0.2381932400,  -7.6893401500)

Analysis of symmetry for initial positions (statically):
 Subroutine PRICEL returns:
 Original cell was already a primitive cell.

 Routine SETGRP: Setting up the symmetry group for a
 simple monoclinic supercell.

 Subroutine GETGRP returns: Found  2 space group operations
 (whereof  1 operations were pure point group operations)
 out of a pool of  4 trial point group operations.

The static configuration has the point symmetry C_1 .
 The point group associated with its full space group is C_1h.

Analysis of symmetry for dynamics (positions and initial velocities):
 Subroutine PRICEL returns:
 Original cell was already a primitive cell.

[...]

The dynamic configuration has the point symmetry C_1 .
 The point group associated with its full space group is C_1h.

Analysis of structural, dynamic, and magnetic symmetry:
 Subroutine PRICEL returns:
 Original cell was already a primitive cell.

 Routine SETGRP: Setting up the symmetry group for a
 simple monoclinic supercell.

 Subroutine GETGRP returns: Found  2 space group operations
 (whereof  1 operations were pure point group operations)
 out of a pool of  4 trial point group operations.

The overall configuration has the point symmetry C_1 .
 The point group associated with its full space group is C_1h.

 Subroutine INISYM returns: Found  2 space group operations
 (whereof  1 operations are pure point group operations),
 and found     1 'primitive' translations

                                     Primitive cell

  volume of cell :     299.1677

  direct lattice vectors                    reciprocal lattice vectors
     6.424094540  0.000000000  0.000000000     0.155663961  0.000000000 -0.000000000
     0.000000000  6.050449090  0.191713350    -0.000000000  0.160998218  0.135037424
     0.000000000 -6.288642330  7.497626800     0.000000000 -0.004116704  0.129922647

  length of vectors
     6.424094540  6.053485624  9.785776923     0.155663961  0.210132178  0.129987852

  position of ions in fractional coordinates (direct lattice)
     0.806441780  0.117437780  0.659623640
     0.193558220  0.617437780  0.659623640
     0.194314980  0.183535820  0.225304460
     0.805685020  0.683535820  0.225304460
     0.856982220  0.583766100  0.442124390
     0.143017780  0.083766100  0.442124390
     0.953566790  0.624544220  0.943312390
     0.046433210  0.124544220  0.943312390
     0.327491550  0.345227830  0.442479640
     0.672508450  0.845227830  0.442479640
     0.810344780  0.542057240  0.675431060
     0.189655220  0.042057240  0.675431060
     0.706870660  0.301988050  0.942417520
     0.293129340  0.801988050  0.942417520
     0.189672480  0.575840400  0.208946030
     0.810327520  0.075840400  0.208946030
     0.636781970  0.917316440  0.941823530
     0.363218030  0.417316440  0.941823530
     0.419289030  0.665063150  0.442396350
     0.580710970  0.165063150  0.442396350

  ion indices of the primitive-cell ions
   primitive index   ion index
                 1           1
                 2           2
                 3           3
                 4           4
                 5           5
                 6           6
                 7           7
                 8           8
                 9           9
                10          10
                11          11
                12          12
                13          13
                14          14
                15          15
                16          16
                17          17
                18          18
                19          19
                20          20

 KPOINTS: # No comment

Automatic generation of k-mesh.
 Grid dimensions read from file:
 generate k-points for:    4    5    3

 Generating k-lattice:

  Cartesian coordinates                     Fractional coordinates (reciprocal lattice)
     0.038915990  0.000000000 -0.000000000     0.250000000  0.000000000  0.000000000
    -0.000000000  0.032199644  0.027007485     0.000000000  0.200000000  0.000000000
     0.000000000 -0.001372235  0.043307549     0.000000000 -0.000000000  0.333333333

  Length of vectors
     0.038915990  0.042026436  0.043329284

  Shift w.r.t. Gamma in fractional coordinates (k-lattice)
     0.000000000  0.000000000  0.000000000

 Subroutine IBZKPT returns following result:

 Found     24 irreducible k-points:

 Following reciprocal coordinates:
            Coordinates               Weight
  0.000000  0.000000  0.000000      1.000000
  0.250000  0.000000  0.000000      2.000000
  0.500000  0.000000  0.000000      1.000000
  0.000000  0.200000  0.000000      2.000000
  0.250000  0.200000  0.000000      4.000000
  0.500000  0.200000  0.000000      2.000000
  0.000000  0.400000  0.000000      2.000000
  0.250000  0.400000  0.000000      4.000000
  0.500000  0.400000  0.000000      2.000000
  0.000000  0.000000  0.333333      2.000000
  0.250000  0.000000  0.333333      4.000000
  0.500000  0.000000  0.333333      2.000000
  0.000000  0.200000  0.333333      2.000000
  0.250000  0.200000  0.333333      4.000000
  0.500000  0.200000  0.333333      2.000000
  0.000000  0.400000  0.333333      2.000000
  0.250000  0.400000  0.333333      4.000000
  0.500000  0.400000  0.333333      2.000000
  0.000000 -0.400000  0.333333      2.000000
  0.250000 -0.400000  0.333333      4.000000
  0.500000 -0.400000  0.333333      2.000000
  0.000000 -0.200000  0.333333      2.000000
  0.250000 -0.200000  0.333333      4.000000
  0.500000 -0.200000  0.333333      2.000000

 Following cartesian coordinates:
            Coordinates               Weight
  0.000000  0.000000  0.000000      1.000000
  0.038916  0.000000  0.000000      2.000000
  0.077832  0.000000  0.000000      1.000000
  0.000000  0.032200  0.027007      2.000000
  0.038916  0.032200  0.027007      4.000000
  0.077832  0.032200  0.027007      2.000000
  0.000000  0.064399  0.054015      2.000000
  0.038916  0.064399  0.054015      4.000000
  0.077832  0.064399  0.054015      2.000000
  0.000000 -0.001372  0.043308      2.000000
  0.038916 -0.001372  0.043308      4.000000
  0.077832 -0.001372  0.043308      2.000000
  0.000000  0.030827  0.070315      2.000000
  0.038916  0.030827  0.070315      4.000000
  0.077832  0.030827  0.070315      2.000000
  0.000000  0.063027  0.097323      2.000000
  0.038916  0.063027  0.097323      4.000000
  0.077832  0.063027  0.097323      2.000000
  0.000000 -0.065772 -0.010707      2.000000
  0.038916 -0.065772 -0.010707      4.000000
  0.077832 -0.065772 -0.010707      2.000000
  0.000000 -0.033572  0.016300      2.000000
  0.038916 -0.033572  0.016300      4.000000
  0.077832 -0.033572  0.016300      2.000000

 Subroutine IBZKPT_HF returns following result:

 Found     60 k-points in 1st BZ
 the following     60 k-points will be used (e.g. in the exchange kernel)
 Following reciprocal coordinates:   # in IRBZ
  0.000000  0.000000  0.000000    0.01666667   1 t-inv F
  0.250000  0.000000  0.000000    0.01666667   2 t-inv F
  0.500000  0.000000  0.000000    0.01666667   3 t-inv F
  0.000000  0.200000  0.000000    0.01666667   4 t-inv F
  0.250000  0.200000  0.000000    0.01666667   5 t-inv F
  0.500000  0.200000  0.000000    0.01666667   6 t-inv F
  0.000000  0.400000  0.000000    0.01666667   7 t-inv F
  0.250000  0.400000  0.000000    0.01666667   8 t-inv F
  0.500000  0.400000  0.000000    0.01666667   9 t-inv F
  0.000000  0.000000  0.333333    0.01666667  10 t-inv F
  0.250000  0.000000  0.333333    0.01666667  11 t-inv F
  0.500000  0.000000  0.333333    0.01666667  12 t-inv F
  0.000000  0.200000  0.333333    0.01666667  13 t-inv F
  0.250000  0.200000  0.333333    0.01666667  14 t-inv F
  0.500000  0.200000  0.333333    0.01666667  15 t-inv F
  0.000000  0.400000  0.333333    0.01666667  16 t-inv F
  0.250000  0.400000  0.333333    0.01666667  17 t-inv F
  0.500000  0.400000  0.333333    0.01666667  18 t-inv F
  0.000000 -0.400000  0.333333    0.01666667  19 t-inv F
  0.250000 -0.400000  0.333333    0.01666667  20 t-inv F
[...]
       1 -54.4290       2 -54.4290       3 -54.4345       4 -54.4345       5 -55.1791
       6 -55.1791       7 -55.2480       8 -55.2480       9 -64.7946      10 -64.7946
      11 -83.1613      12 -83.1613      13 -83.2236      14 -83.2236      15 -83.1624
      16 -83.1624      17 -72.8902      18 -72.8902      19 -72.6399      20 -72.6399

 E-fermi :   3.1155     XC(G=0):  -7.8631     alpha+bet :-11.2724

 Fermi energy:         3.1154775717

 spin component 1

 k-point     1 :       0.0000    0.0000    0.0000
  band No.  band energies     occupation
      1     -57.2715      1.00000
      2     -57.2608      1.00000
      3     -57.0779      1.00000
      4     -57.0761      1.00000
      5     -56.8861      1.00000
      6     -56.8858      1.00000
      7     -55.9067      1.00000
      8     -55.9056      1.00000
      9     -55.6550      1.00000
     10     -55.6512      1.00000
     11     -55.4493      1.00000
     12     -55.4486      1.00000
     13     -45.4624      1.00000
     14     -45.4557      1.00000
     15     -45.3889      1.00000
     16     -45.3873      1.00000
     17     -44.6565      1.00000
     18     -44.6562      1.00000
     19     -44.6506      1.00000
     20     -44.6501      1.00000
     21     -16.8877      1.00000
     22     -16.6657      1.00000
     23     -10.8486      1.00000
     24     -10.1825      1.00000
     25     -10.0208      1.00000
     26      -9.9416      1.00000
     27      -9.8907      1.00000
     28      -9.6509      1.00000
     29      -3.7094      1.00000
     30      -3.3125      1.00000
     31      -2.8417      1.00000
     32      -2.6993      1.00000
     33      -2.6213      1.00000
     34      -2.5213      1.00000
     35      -2.4334      1.00000
     36      -2.3103      1.00000
     37      -2.2378      1.00000
     38      -2.0778      1.00000
     39      -2.0359      1.00000
     40      -1.9454      1.00000
     41      -1.8961      1.00000
     42      -1.8878      1.00000
     43      -1.8430      1.00000
     44      -1.6938      1.00000
     45      -1.6281      1.00000
     46      -1.3800      1.00000
     47      -1.3346      1.00000
     48      -1.2466      1.00000
     49      -1.1160      1.00000
     50      -1.0353      1.00000
     51      -0.9406      1.00000
     52      -0.8083      1.00000
     53      -0.7268      1.00000
     54      -0.3252      1.00000
     55      -0.2979      1.00000
     56      -0.0498      1.00000
     57      -0.0226      1.00000
     58       0.4306      1.00000
     59       0.6089      1.00000
     60       0.8167      1.00000
[...]
     86      11.2685      0.00000
     87      11.4349      0.00000
     88      11.5133      0.00000
     89      11.7397      0.00000
     90      11.7875      0.00000
     91      12.3097      0.00000
     92      12.4252      0.00000
     93      12.6326      0.00000
     94      12.6963      0.00000
     95      12.7273      0.00000
     96      13.0150      0.00000
     97      13.1255      0.00000
     98      13.4744      0.00000
     99      13.8061      0.00000
    100      13.9520      0.00000

[...]

 k-point    24 :       0.5000   -0.2000    0.3333
  band No.  band energies     occupation
      1     -57.2705      1.00000
      2     -57.2618      1.00000
      3     -57.0777      1.00000
      4     -57.0763      1.00000
      5     -56.8861      1.00000
      6     -56.8858      1.00000
      7     -55.9066      1.00000
      8     -55.9057      1.00000
      9     -55.6546      1.00000
     10     -55.6516      1.00000
     11     -55.4493      1.00000
     12     -55.4487      1.00000
     13     -45.4617      1.00000
     14     -45.4563      1.00000
     15     -45.3888      1.00000
     16     -45.3874      1.00000
     17     -44.6565      1.00000
     18     -44.6562      1.00000
     19     -44.6505      1.00000
     20     -44.6502      1.00000
     21     -16.8659      1.00000
     22     -16.6862      1.00000
     23     -10.5407      1.00000
     24     -10.4362      1.00000
     25     -10.0316      1.00000
     26      -9.9972      1.00000
     27      -9.8849      1.00000
     28      -9.7086      1.00000
     29      -3.6354      1.00000
     30      -3.2728      1.00000
     31      -2.8536      1.00000
     32      -2.8298      1.00000
     33      -2.5943      1.00000
     34      -2.5645      1.00000
     35      -2.4597      1.00000
     36      -2.4469      1.00000
     37      -2.3559      1.00000
     38      -2.2545      1.00000
     39      -2.2196      1.00000
     40      -2.1514      1.00000
     41      -2.0438      1.00000
     42      -2.0367      1.00000
     43      -1.8814      1.00000
     44      -1.7673      1.00000
     45      -1.4268      1.00000
     46      -1.4014      1.00000
     47      -1.2996      1.00000
     48      -1.1480      1.00000
     49      -0.8377      1.00000
     50      -0.8324      1.00000
     51      -0.7585      1.00000
     52      -0.5689      1.00000
     53      -0.4836      1.00000
     54      -0.1174      1.00000
     55      -0.0907      1.00000
     56       0.1238      1.00000
     57       0.1701      1.00000
     58       0.4834      1.00000
     59       0.6623      1.00000
     60       0.7744      1.00000
[...]
     86      10.8758      0.00000
     87      10.9892      0.00000
     88      10.9925      0.00000
     89      11.5100      0.00000
     90      11.8206      0.00000
     91      12.0189      0.00000
     92      12.1186      0.00000
     93      12.4177      0.00000
     94      12.6435      0.00000
     95      12.7828      0.00000
     96      12.8383      0.00000
     97      13.2067      0.00000
     98      13.3152      0.00000
     99      13.4495      0.00000
    100      13.7621      0.00000
 Fermi energy:         3.1154775717

 spin component 2

[...]

 k-point    24 :       0.5000   -0.2000    0.3333
  band No.  band energies     occupation
      1     -51.0231      1.00000
      2     -51.0205      1.00000
      3     -50.9840      1.00000
      4     -50.9831      1.00000
      5     -50.8367      1.00000
      6     -50.8349      1.00000
      7     -50.6890      1.00000
      8     -50.6870      1.00000
      9     -50.6583      1.00000
     10     -50.6415      1.00000
     11     -50.6346      1.00000
     12     -50.6318      1.00000
     13     -45.4519      1.00000
     14     -45.4466      1.00000
     15     -45.3833      1.00000
     16     -45.3820      1.00000
     17     -44.6496      1.00000
     18     -44.6494      1.00000
     19     -44.6436      1.00000
     20     -44.6433      1.00000
     21     -16.5208      1.00000
     22     -16.3467      1.00000
     23     -10.3180      1.00000
     24     -10.2336      1.00000
     25      -9.8183      1.00000
     26      -9.7880      1.00000
     27      -9.6745      1.00000
     28      -9.5035      1.00000
     29      -2.3110      1.00000
     30      -1.9015      1.00000
     31      -1.6184      1.00000
     32      -1.4577      1.00000
     33      -1.1740      1.00000
     34      -1.1031      1.00000
     35      -1.0985      1.00000
     36      -0.9896      1.00000
     37      -0.5466      1.00000
     38      -0.4467      1.00000
     39      -0.2324      1.00000
     40      -0.1350      1.00000
     41      -0.1171      1.00000
     42      -0.0266      1.00000
     43       0.2659      1.00000
     44       0.3421      1.00000
     45       0.6025      1.00000
     46       0.7748      1.00000
     47       0.9220      1.00000
     48       1.1359      1.00000
     49       1.1828      1.00000
     50       1.2654      1.00000
     51       1.5691      1.00000
     52       1.7713      1.00000
     53       2.4153      1.00000
     54       2.5180      1.00000
     55       2.6879      1.00000
     56       2.8325      1.00000
     57       5.8537      0.00000
     58       5.9259      0.00000
     59       5.9368      0.00000
     60       6.3019      0.00000
[...]
     86      11.2735      0.00000
     87      11.4454      0.00000
     88      11.5208      0.00000
     89      12.0271      0.00000
     90      12.2884      0.00000
     91      12.3979      0.00000
     92      12.6517      0.00000
     93      12.8712      0.00000
     94      13.2121      0.00000
     95      13.3734      0.00000
     96      13.4813      0.00000
     97      13.7667      0.00000
     98      13.7817      0.00000
     99      14.0206      0.00000
    100      14.2318      0.00000

 soft charge-density along one line, spin component           1
         0         1         2         3         4         5         6         7         8         9
 total charge-density along one line

 soft charge-density along one line, spin component           2
         0         1         2         3         4         5         6         7         8         9
 total charge-density along one line

------------------------ aborting loop because EDIFF is reached ----------------------------------------

 total charge

# of ion       s       p       d       tot
    1        2.025   0.073   0.000   2.098
    2        2.025   0.073   0.000   2.098
    3        2.025   0.073   0.000   2.099
    4        2.025   0.073   0.000   2.099
    5        2.017   0.056   0.000   2.073
    6        2.017   0.056   0.000   2.073
    7        2.017   0.058   0.000   2.075
    8        2.017   0.058   0.000   2.075
    9        1.549   3.519   0.000   5.068
   10        1.549   3.519   0.000   5.068
   11        1.304   2.473   0.000   3.777
   12        1.304   2.473   0.000   3.777
   13        1.304   2.528   0.000   3.832
   14        1.304   2.528   0.000   3.832
   15        1.304   2.473   0.000   3.777
   16        1.304   2.473   0.000   3.777
   17        0.285   6.268   5.895  12.449
   18        0.285   6.268   5.895  12.449
   19        0.262   6.253   5.911  12.426
   20        0.262   6.253   5.911  12.426
tot         28.187  47.550  23.613  99.350

 magnetization (x)

[...]

  FORCE on cell =-STRESS in cart. coord.  units (eV):
  Direction    XX          YY          ZZ          XY          YZ          ZX
  Alpha Z   263.89081   263.89081   263.89081
  Ewald   -2861.19562 -1755.04931 -2949.43283    -0.00000    40.03999    -0.00000
  Hartree  1271.02516  2270.44899  1344.40496    -0.00001    30.44168     0.00000
  E(xc)    -498.50514  -498.36011  -498.73348    -0.00000     0.01291    -0.00000
  Local    -413.82939 -2504.24658  -394.70576     0.00001   -70.15358    -0.00000
  n-local   487.26083   484.23809   479.80948    -0.05457     0.18420    -0.01622
  augment   564.13199   552.05508   557.37528     0.00000    -0.13046    -0.00000
  Kinetic  1626.31778  1621.31376  1634.06682    -0.24282    -0.47565    -0.02440
  Fock     -439.13749  -434.34115  -436.59285     0.00067     0.05782     0.00042
  Total      -0.04107    -0.05041     0.08243     0.00000    -0.02310     0.00000
  in kB      -0.21995    -0.26999     0.44143     0.00000    -0.12373     0.00000

 VOLUME and BASIS-vectors are now :
  energy-cutoff  :      520.00
  volume of cell :      299.17
      direct lattice vectors                 reciprocal lattice vectors
     6.424094540  0.000000000  0.000000000     0.155663961  0.000000000 -0.000000000
     0.000000000  6.050449090  0.191713350    -0.000000000  0.160998218  0.135037424
     0.000000000 -6.288642330  7.497626800     0.000000000 -0.004116704  0.129922647

  length of vectors
     6.424094540  6.053485624  9.785776923     0.155663961  0.210132178  0.129987852

 FORCES acting on ions:
    Electron-Ion                     Ewald-Force                    Non-Local-Force
   -.640E+02 0.128E+02 -.496E+02   0.633E+02 -.127E+02 0.490E+02   0.726E+00 -.138E+00 0.555E+00
   0.640E+02 0.128E+02 -.496E+02   -.633E+02 -.127E+02 0.490E+02   -.726E+00 -.138E+00 0.555E+00
   0.640E+02 0.981E+01 0.507E+02   -.633E+02 -.970E+01 -.501E+02   -.740E+00 -.104E+00 -.583E+00
   -.640E+02 0.981E+01 0.507E+02   0.633E+02 -.970E+01 -.501E+02   0.740E+00 -.104E+00 -.583E+00
   -.754E+02 0.127E+02 0.611E+00   0.736E+02 -.128E+02 -.606E+00   0.177E+01 0.919E-01 -.289E-02
   0.754E+02 0.127E+02 0.611E+00   -.736E+02 -.128E+02 -.606E+00   -.177E+01 0.919E-01 -.289E-02
   -.168E+02 0.151E+02 0.551E+00   0.161E+02 -.142E+02 -.505E+00   0.619E+00 -.862E+00 -.563E-01
   0.168E+02 0.151E+02 0.551E+00   -.161E+02 -.142E+02 -.505E+00   -.619E+00 -.862E+00 -.563E-01
   0.228E+03 0.566E+02 0.177E+01   -.234E+03 -.577E+02 -.176E+01   0.552E+01 0.939E+00 -.157E-01
   -.228E+03 0.566E+02 0.177E+01   0.234E+03 -.577E+02 -.176E+01   -.552E+01 0.939E+00 -.157E-01
   -.141E+03 -.125E+02 -.909E+01   0.142E+03 0.129E+02 0.853E+01   -.101E+01 -.311E+00 0.506E+00
   0.141E+03 -.125E+02 -.909E+01   -.142E+03 0.129E+02 0.853E+01   0.101E+01 -.311E+00 0.506E+00
   -.148E+03 -.517E+02 -.225E+01   0.149E+03 0.524E+02 0.228E+01   -.885E+00 -.635E+00 -.226E-01
   0.148E+03 -.517E+02 -.225E+01   -.149E+03 0.524E+02 0.228E+01   0.885E+00 -.635E+00 -.226E-01
   0.140E+03 -.135E+02 0.819E+01   -.141E+03 0.138E+02 -.762E+01   0.100E+01 -.284E+00 -.513E+00
   -.140E+03 -.135E+02 0.819E+01   0.141E+03 0.138E+02 -.762E+01   -.100E+01 -.284E+00 -.513E+00
   -.881E+02 -.307E+01 -.895E+00   0.876E+02 0.398E+01 0.915E+00   0.416E+00 -.817E+00 -.104E-01
   0.881E+02 -.307E+01 -.895E+00   -.876E+02 0.398E+01 0.915E+00   -.416E+00 -.817E+00 -.104E-01
   0.123E+03 -.217E+02 0.285E+00   -.124E+03 0.240E+02 -.180E+00   0.343E+00 -.207E+01 -.917E-01
   -.123E+03 -.217E+02 0.285E+00   0.124E+03 0.240E+02 -.180E+00   -.343E+00 -.207E+01 -.917E-01
   -.962E-04 0.900E+01 0.502E+00   0.284E-13 0.711E-13 0.411E-13   0.278E-15 -.838E+01 -.469E+00

 POSITION                                       TOTAL-FORCE (eV/Angst)
      5.18066     -3.43759      4.96813        -0.003150     -0.004543     -0.000376
      1.24344     -0.41236      5.06398         0.003150     -0.004543     -0.000376
      1.24830     -0.30639      1.72444        -0.000531     -0.008060     -0.003438
      5.17580      2.71884      1.82029         0.000531     -0.008060     -0.003438
      5.50533      0.75168      3.42680        -0.017534     -0.003125      0.003168
      0.91876     -2.27354      3.33094         0.017534     -0.003125      0.003168
      6.12580     -2.15338      7.19234        -0.005642      0.006109     -0.009126
      0.29829     -5.17861      7.09648         0.005642      0.006109     -0.009126
      2.10384     -0.69381      3.38373         0.002221     -0.016598     -0.003929
      4.32026      2.33141      3.47959        -0.002221     -0.016598     -0.003929
      5.20573     -0.96785      5.16805        -0.003694      0.009697     -0.004427
      1.21836     -3.99308      5.07219         0.003694      0.009697     -0.004427
      4.54100     -4.09936      7.12379         0.007286      0.003003     -0.000483
      1.88309     -1.07414      7.21965        -0.007286      0.003003     -0.000483
      1.21847      2.17011      1.67700         0.006457      0.009058      0.009876
      5.20562     -0.85512      1.58114        -0.006457      0.009058      0.009876
      4.09075     -0.37261      7.23730        -0.005539      0.005772      0.005914
      2.33335     -3.39784      7.14145         0.005539      0.005772      0.005914
      2.69355      1.24186      3.44442         0.011737     -0.001314      0.002822
      3.73054     -1.78337      3.34857        -0.011737     -0.001314      0.002822
    total drift:                               -0.000096     -0.009590     -0.000371

  FREE ENERGIE OF THE ION-ELECTRON SYSTEM (eV)
  free  energy   TOTEN  =      -133.46317201 eV

  energy  without entropy=     -133.46317201  energy(sigma->0) =     -133.46317201

 reached required accuracy - stopping structural energy minimisation
 writing wavefunctions

 total charge

[...]

 magnetization (x)

# of ion       s       p       d       tot
    1        0.001   0.002   0.000   0.003
    2        0.001   0.002   0.000   0.003
    3        0.001   0.002   0.000   0.003
    4        0.001   0.002   0.000   0.003
    5        0.001   0.002   0.000   0.002
    6        0.001   0.002   0.000   0.002
    7        0.001   0.003   0.000   0.004
    8        0.001   0.003   0.000   0.004
    9        0.006   0.105   0.000   0.112
   10        0.006   0.105   0.000   0.112
   11        0.009   0.060   0.000   0.069
   12        0.009   0.060   0.000   0.069
   13        0.007   0.064   0.000   0.071
   14        0.007   0.064   0.000   0.071
   15        0.009   0.059   0.000   0.069
   16        0.009   0.059   0.000   0.069
   17        0.026   0.044   3.487   3.557
   18        0.026   0.044   3.487   3.557
   19        0.033   0.037   3.536   3.605
   20        0.033   0.037   3.536   3.605
tot          0.185   0.756  14.046  14.987