 vasp.6.2.0 18Jan21 (build Feb  9 2021 11:43:09) complex
 executed on       CrayXC_GCC_OMP date 2021.05.06  06:21:31

 INCAR:
   ALGO = all
   EDIFF = 0.000111
   EDIFFG = -0.03
   ENCUT = 520
   GGA = pe
   IBRION = 2
   ISIF = 2
   ISMEAR = 0
   ISPIN = 2
   KPAR = 8
   LASPH = .TRUE.
   LDAU = .TRUE.
   LDAUJ = 0.0 0.0 0.0 0.0
   LDAUL = 2 -1 -1 -1
   LDAUTYPE = 2
   LDAUU = 4.0 0.0 0.0 0.0
   LMAXMIX = 4
   LORBIT = 10
   LREAL = .FALSE.
   LVHAR = .TRUE.
   LWAVE = .FALSE.
   MAGMOM = 5 5 5 5 5 5 5 5 5 5 5 5 5 5 5 5 5 5 5 5 5 5 5 5 5 5 5 5 5 5 5 5 0.6 0.6 0.6 0.6 0.6 0.6 0.6 0.6 0.6 0.6 0.6 0.6 0.6 0.6 0.6 0.6 0.6 0.6 0.6 0.6 0.6 0.6 0.6 0.6 0.6 0.6 0.6 0.6 0.6 0.6 0.6 0.6 0.6 0.6 0.6 0.6 0.6 0.6 0.6 0.6 0.6 0.6 0.6 0.6 0.6 0.6 0.6 0.6 0.6 0.6 0.6 0.6 0.6 0.6 0.6 0.6 0.6 0.6 0.6 0.6 0.6 0.6 0.6 0.6 0.6 0.6 0.6 0.6 0.6 0.6 0.6 0.6 0.6 0.6 0.6 0.6 0.6 0.6 0.6
   NCORE = 4
   NEDOS = 2000
   NELECT = 828
   NELM = 200
   NELMIN = 4
   NSW = 60
   NWRITE = 1
   PREC = accurate
   SIGMA = 0.05

 POTCAR:    PAW_PBE Fe_pv 02Aug2007
 POTCAR:    PAW_PBE Li_sv 10Sep2004
 POTCAR:    PAW_PBE O 08Apr2002
 POTCAR:    PAW_PBE S 06Sep2000
 POTCAR:    PAW_PBE Fe_pv 02Aug2007

 POTCAR:    PAW_PBE Li_sv 10Sep2004

 POTCAR:    PAW_PBE O 08Apr2002

 POTCAR:    PAW_PBE S 06Sep2000

  PAW_PBE Fe_pv 02Aug2007               :
  PAW_PBE Li_sv 10Sep2004               :
  PAW_PBE O 08Apr2002                   :
  PAW_PBE S 06Sep2000                   :

 POSCAR: # Compound: Fe32Li31O16S32. Old comment:
  positions in direct lattice
 exchange correlation table for  LEXCH =        8
   RHO(1)=    0.500       N(1)  =     2000
   RHO(2)=  100.500       N(2)  =     4000

 ion  position               nearest neighbor table
   1  0.974  0.079  0.159-  73 2.05  84 2.43  97 2.72  80 2.72  83 2.72  98 2.72
   2  0.224  0.330  0.160-  68 2.05  85 2.42  81 2.72  99 2.72  80 2.72  98 2.73
   3  0.724  0.329  0.158-  79 2.04  86 2.43  99 2.72  97 2.72  80 2.72  82 2.72
   4  0.975  0.580  0.159-  66 2.04  87 2.42  81 2.70  80 2.72  83 2.72  82 2.74
   5  0.975  0.421  0.341-  70 2.04  80 2.44  87 2.71  85 2.72  84 2.72  86 2.73
   6  0.234  0.681  0.347-  67 1.98  81 2.47 100 2.62 102 2.66
   7  0.726  0.671  0.341-  72 2.04  82 2.44  87 2.65 101 2.71  86 2.72 100 2.73
   8  0.973  0.919  0.342-  77 2.04  83 2.44 101 2.68 102 2.71  87 2.72  84 2.73
   9  0.973  0.078  0.658-  77 2.04  92 2.44 105 2.68 106 2.71  91 2.72  88 2.73
  10  0.226  0.331  0.659-  64 2.04  93 2.44  89 2.68 106 2.71 107 2.72  88 2.74
  11  0.724  0.329  0.659-  75 2.04  94 2.44 107 2.70 105 2.72  90 2.73  88 2.73
  12  0.975  0.580  0.659-  70 2.04  95 2.44  91 2.71  89 2.72  88 2.72  90 2.73
  13  0.974  0.421  0.841-  66 2.05  88 2.43  94 2.72  92 2.72  95 2.72  93 2.72
  14  0.224  0.671  0.840-  71 2.05  89 2.42 110 2.72 108 2.72  95 2.72  93 2.73
  15  0.724  0.670  0.842-  76 2.04  90 2.43 108 2.72  94 2.72  95 2.72 109 2.72
  16  0.975  0.920  0.841-  73 2.04  91 2.42 110 2.70  95 2.72  92 2.72 109 2.74
  17  0.475  0.578  0.159-  65 2.04 100 2.42  99 2.70  82 2.70  81 2.73  96 2.74
  18  0.723  0.830  0.160-  76 2.05 101 2.42  96 2.71  97 2.72  82 2.73  83 2.73
  19  0.223  0.830  0.158-  71 2.04 102 2.42  83 2.71  98 2.71  81 2.72  96 2.73
  20  0.474  0.079  0.159-  74 2.04 103 2.42  96 2.71  98 2.72  97 2.72  99 2.73
  21  0.466  0.913  0.347-  78 1.98  96 2.47 100 2.62 102 2.66
  22  0.724  0.170  0.341-  75 2.04  97 2.44 103 2.70 101 2.72  86 2.73  84 2.73
  23  0.226  0.172  0.341-  64 2.04  98 2.44  85 2.68 102 2.71 103 2.72  84 2.74
  24  0.474  0.419  0.341-  69 2.04  99 2.44 103 2.65  85 2.71  86 2.73 100 2.73
  25  0.474  0.577  0.659-  69 2.04 108 2.44 107 2.65  89 2.71  90 2.73 104 2.73
  26  0.726  0.829  0.659-  72 2.04 109 2.44  91 2.65 105 2.71  90 2.72 104 2.73
  27  0.235  0.835  0.653-  67 1.98 110 2.47 104 2.62 106 2.66
  28  0.466  0.066  0.653-  78 1.98 111 2.47 104 2.62 106 2.66
  29  0.475  0.919  0.841-  74 2.04 104 2.42 108 2.70 109 2.70 110 2.73 111 2.74
  30  0.723  0.170  0.840-  79 2.05 105 2.42 111 2.71  94 2.72 109 2.73  92 2.73
  31  0.223  0.172  0.842-  68 2.04 106 2.42  92 2.71  93 2.71 110 2.72 111 2.73
  32  0.474  0.420  0.841-  65 2.04 107 2.42 111 2.71  93 2.72  94 2.72 108 2.73
  33  0.081  0.144  0.000-  73 1.94  68 1.94  80 2.54  92 2.55
  34  0.867  0.857  0.000-  73 1.95  76 1.95  95 2.56  83 2.56
  35  0.867  0.357  1.000-  66 1.95  79 1.95  80 2.56  92 2.56
  36  0.081  0.643  1.000-  66 1.94  71 1.94  95 2.54  83 2.55
  37  0.118  0.393  0.500-  70 1.95  64 1.96  85 2.54  89 2.54
  38  0.335  0.616  0.500-  67 1.92  69 1.95  89 2.63  85 2.63
  39  0.830  0.606  0.500-  70 1.95  72 1.95  86 2.55  90 2.55
  40  0.618  0.394  0.500-  69 1.95  75 1.95  90 2.55  86 2.55
  41  0.080  0.144  0.500-  64 1.94  77 1.94  88 2.54  84 2.54
  42  0.866  0.858  0.500-  77 1.95  72 1.95  91 2.55  87 2.55
  43  0.868  0.357  0.500-  70 1.94  75 1.94  88 2.55  84 2.55
  44  0.079  0.645  0.500-  67 1.88  70 1.94  87 2.56  91 2.56
  45  0.117  0.394  0.001-  66 1.94  68 1.94  93 2.55  81 2.58
  46  0.331  0.606  0.000-  65 1.94  71 1.94  93 2.55  81 2.58
  47  0.831  0.608  0.001-  76 1.94  66 1.95  82 2.55  94 2.56
  48  0.618  0.394  1.000-  79 1.94  65 1.94  82 2.54  94 2.55
  49  0.581  0.643  0.001-  76 1.94  65 1.94 108 2.55  96 2.58
  50  0.368  0.356  0.999-  68 1.94  65 1.94  99 2.54 111 2.57
  51  0.368  0.856  0.001-  71 1.94  74 1.94 108 2.54  96 2.57
  52  0.581  0.143  0.999-  79 1.94  74 1.94  99 2.55 111 2.58
  53  0.608  0.889  0.500-  78 1.92  72 1.96 101 2.63 105 2.63
  54  0.831  0.106  0.500-  75 1.95  77 1.96 101 2.54 105 2.54
  55  0.327  0.099  0.500-  78 1.91  64 1.97 106 2.51 102 2.52
  56  0.125  0.897  0.500-  67 1.92  77 1.97 106 2.51 102 2.51
  57  0.367  0.358  0.500-  64 1.95  69 1.95 107 2.55 103 2.55
  58  0.580  0.644  0.500-  69 1.93  72 1.93 104 2.55 100 2.55
  59  0.579  0.146  0.500-  78 1.88  75 1.94 103 2.56 107 2.56
  60  0.618  0.894  0.000-  76 1.94  74 1.94 109 2.54  97 2.55
[...]
  97  0.725  0.076  0.152-  22 2.44  60 2.55  61 2.56   3 2.72   1 2.72  18 2.72  20 2.72
  98  0.224  0.076  0.151-  23 2.44  62 2.55  63 2.55  19 2.71   1 2.72  20 2.72   2 2.73
  99  0.474  0.326  0.151-  24 2.44  50 2.54  52 2.55  17 2.70   3 2.72   2 2.72  20 2.73
 100  0.475  0.673  0.347-  17 2.42  58 2.55   6 2.62  21 2.62   7 2.73  24 2.73
 101  0.726  0.924  0.348-  18 2.42  54 2.54  53 2.63   8 2.68   7 2.71  22 2.72
 102  0.222  0.925  0.346-  19 2.42  56 2.51  55 2.52  21 2.66   6 2.66  23 2.71   8 2.71
 103  0.475  0.178  0.347-  20 2.42  57 2.55  59 2.56  24 2.65  22 2.70  23 2.72
 104  0.475  0.826  0.653-  29 2.42  58 2.55  27 2.62  28 2.62  26 2.73  25 2.73
 105  0.726  0.075  0.652-  30 2.42  54 2.54  53 2.63   9 2.68  26 2.71  11 2.72
 106  0.222  0.079  0.654-  31 2.42  56 2.51  55 2.51  28 2.66  27 2.66  10 2.71   9 2.71
 107  0.475  0.331  0.653-  32 2.42  57 2.55  59 2.56  25 2.65  11 2.70  10 2.72
 108  0.474  0.675  0.849-  25 2.44  51 2.54  49 2.55  29 2.70  15 2.72  14 2.72  32 2.73
 109  0.724  0.924  0.848-  26 2.44  60 2.54  61 2.55  29 2.70  15 2.72  30 2.73  16 2.74
 110  0.224  0.923  0.845-  27 2.47  62 2.58  63 2.58  16 2.70  14 2.72  31 2.72  29 2.73
 111  0.474  0.172  0.845-  28 2.47  50 2.57  52 2.58  32 2.71  30 2.71  31 2.73  29 2.74

  LATTYP: Found a base centered orthorhombic cell.
 ALAT       =    10.8749739061
 B/A-ratio  =     2.3644048249
 C/A-ratio  =     1.0000101723

  Lattice vectors:

 A1 = (   3.8335882400,   3.8349345400, -12.8627506400)
 A2 = (   3.8548230400,   3.8561790800,  12.8500725900)
 A3 = (   7.6911861600,  -7.6885056400,   0.0000000100)

Analysis of symmetry for initial positions (statically):
 Subroutine PRICEL returns:
 Original cell was already a primitive cell.

 Routine SETGRP: Setting up the symmetry group for a
 base centered orthorhombic supercell.

 Subroutine GETGRP returns: Found  1 space group operations
 (whereof  1 operations were pure point group operations)
 out of a pool of  8 trial point group operations.

The static configuration has the point symmetry C_1 .

Analysis of symmetry for dynamics (positions and initial velocities):
 Subroutine PRICEL returns:
 Original cell was already a primitive cell.

[...]

The dynamic configuration has the point symmetry C_1 .

Analysis of structural, dynamic, and magnetic symmetry:
 Subroutine PRICEL returns:
 Original cell was already a primitive cell.

 Routine SETGRP: Setting up the symmetry group for a
 base centered orthorhombic supercell.

 Subroutine GETGRP returns: Found  1 space group operations
 (whereof  1 operations were pure point group operations)
 out of a pool of  8 trial point group operations.

The overall configuration has the point symmetry C_1 .

 Subroutine INISYM returns: Found  1 space group operations
 (whereof  1 operations are pure point group operations),
 and found     1 'primitive' translations

                                     Primitive cell

  volume of cell :    1520.4808

  direct lattice vectors                    reciprocal lattice vectors
     7.691186160 -7.688505640  0.000000010     0.065032232 -0.065009382  0.000000006
     7.688411280  7.691113620 -0.012678050     0.065042145  0.065064822  0.038783628
    -3.833588240 -3.834934540 12.862750640     0.000064108  0.000064131  0.077782096

  length of vectors
    10.875084530 10.874973906 13.958992648     0.091953308  0.099840280  0.077782149

  position of ions in fractional coordinates (direct lattice)
     0.974251730  0.079146990  0.158610150
     0.224438190  0.330347110  0.159662410
     0.723925790  0.328760710  0.158349480
     0.975375520  0.579547090  0.159444920
     0.974860790  0.420835840  0.341354660
     0.234474380  0.681447070  0.346908170
     0.725721760  0.670694220  0.341321980
     0.972887420  0.919436130  0.341540730
     0.972873570  0.077909480  0.658467710
     0.225632930  0.330617190  0.658639890
     0.723699820  0.328557090  0.658629040
     0.974865620  0.579519840  0.658641550
     0.974262780  0.420510920  0.841383890
     0.224429120  0.670669940  0.840334650
     0.723936080  0.670389580  0.841647480
     0.975384270  0.920065890  0.840553590
     0.475302220  0.577550530  0.158826930
     0.723266820  0.830095590  0.159751860
     0.223316830  0.829591080  0.158063560
     0.474250440  0.078757310  0.159130380
     0.465904850  0.913108120  0.346862610
     0.723705790  0.169926030  0.341371690
     0.225611170  0.171938080  0.341351750
     0.473847850  0.418684130  0.341197350
     0.473831460  0.577486280  0.658808920
     0.725739020  0.829416940  0.658674000
     0.234504650  0.834528960  0.653104640
     0.465910120  0.066255210  0.653140760
     0.475339210  0.918693020  0.841177920
     0.723259120  0.170338460  0.840250870
     0.223309300  0.171506090  0.841926920
     0.474272400  0.419609710  0.840872560
     0.080900530  0.143795060  0.000490050
     0.866884880  0.857268180  0.000035140
     0.866888010  0.357231800  0.999962360
     0.080902650  0.643300620  0.999512320
     0.117889290  0.393204350  0.499996770
     0.335465970  0.615566810  0.499999190
     0.830089720  0.606333560  0.499996190
[...]
   -.278E+01 0.666E+01 0.613E+02   0.252E+01 -.646E+01 -.599E+02   0.268E+00 -.196E+00 -.140E+01
   -.295E+01 0.664E+01 -.612E+02   0.269E+01 -.644E+01 0.598E+02   0.270E+00 -.199E+00 0.140E+01
   0.423E+01 0.620E+01 -.613E+02   -.394E+01 -.603E+01 0.598E+02   -.296E+00 -.167E+00 0.150E+01
   0.129E+02 0.423E+01 -.623E+02   -.130E+02 -.415E+01 0.609E+02   0.114E+00 -.839E-01 0.143E+01
   -.132E+02 0.328E+01 -.628E+02   0.133E+02 -.324E+01 0.614E+02   -.898E-01 -.432E-01 0.140E+01
   -.115E+00 0.332E+00 0.648E+02   0.121E+00 -.333E+00 -.637E+02   -.219E-02 -.254E-02 -.111E+01
   -.543E+01 -.108E+02 0.658E+02   0.547E+01 0.108E+02 -.650E+02   -.344E-01 0.119E-01 -.726E+00
   -.130E+01 0.372E+01 0.632E+02   0.128E+01 -.371E+01 -.621E+02   0.293E-01 -.126E-01 -.113E+01
   -.707E+01 0.997E+01 0.685E+02   0.716E+01 -.101E+02 -.676E+02   -.979E-01 0.121E+00 -.878E+00
   -.910E+00 -.849E+01 -.568E+02   0.877E+00 0.813E+01 0.563E+02   0.332E-01 0.363E+00 0.464E+00
   0.633E+01 -.896E+01 -.685E+02   -.638E+01 0.904E+01 0.677E+02   0.487E-01 -.863E-01 0.832E+00
   -.491E+00 0.477E+01 -.617E+02   0.454E+00 -.463E+01 0.606E+02   0.339E-01 -.137E+00 0.105E+01
   0.850E+01 0.105E+02 -.667E+02   -.859E+01 -.106E+02 0.659E+02   0.883E-01 0.617E-01 0.764E+00
   -.795E+01 0.149E+01 0.601E+02   0.668E+01 -.180E+01 -.565E+02   0.126E+01 0.313E+00 -.355E+01
   0.130E+02 0.430E+01 0.624E+02   -.132E+02 -.421E+01 -.609E+02   0.113E+00 -.837E-01 -.143E+01
   0.419E+01 0.626E+01 0.612E+02   -.390E+01 -.609E+01 -.597E+02   -.295E+00 -.170E+00 -.150E+01
   -.604E+01 -.108E+02 0.588E+02   0.546E+01 0.103E+02 -.573E+02   0.589E+00 0.491E+00 -.150E+01
   -.622E+01 -.109E+02 -.587E+02   0.564E+01 0.104E+02 0.572E+02   0.592E+00 0.494E+00 0.149E+01
   0.475E+01 -.107E+02 -.596E+02   -.423E+01 0.103E+02 0.582E+02   -.534E+00 0.481E+00 0.135E+01
   0.791E+01 -.310E-02 -.596E+02   -.665E+01 -.379E+00 0.561E+02   -.125E+01 0.377E+00 0.353E+01
   -.797E+01 0.136E+01 -.601E+02   0.670E+01 -.168E+01 0.565E+02   0.126E+01 0.318E+00 0.355E+01
   -.841E+00 -.851E+01 0.568E+02   0.812E+00 0.813E+01 -.563E+02   0.323E-01 0.372E+00 -.464E+00
   0.639E+01 -.884E+01 0.685E+02   -.645E+01 0.892E+01 -.676E+02   0.503E-01 -.873E-01 -.833E+00
   -.419E+00 0.486E+01 0.616E+02   0.392E+00 -.471E+01 -.606E+02   0.285E-01 -.140E+00 -.105E+01
   0.866E+01 0.106E+02 0.666E+02   -.876E+01 -.107E+02 -.659E+02   0.881E-01 0.600E-01 -.765E+00
   -.176E+00 -.133E+02 0.403E+00   0.151E+00 0.133E+02 -.377E+00   0.223E-01 -.436E-01 -.214E-01
   -.465E-01 0.137E+02 0.750E-01   0.476E-01 -.137E+02 -.738E-01   -.252E-02 0.353E-01 -.140E-02
   -.500E-01 0.137E+02 -.102E+00   0.517E-01 -.137E+02 0.103E+00   -.224E-02 0.352E-01 0.786E-03
   -.168E+00 -.133E+02 -.367E+00   0.143E+00 0.133E+02 0.341E+00   0.225E-01 -.431E-01 0.217E-01
   -.153E+02 -.796E+00 0.920E-02   0.154E+02 0.858E+00 -.950E-02   -.703E-01 -.640E-01 0.769E-03
   0.628E+01 0.865E+00 0.720E-02   -.631E+01 -.538E+00 -.838E-02   0.492E-01 -.336E+00 0.539E-03
   0.141E+02 0.119E+01 -.186E-01   -.141E+02 -.120E+01 0.182E-01   0.375E-01 0.379E-02 -.212E-04
   -.144E+02 0.120E+01 0.132E-01   0.144E+02 -.119E+01 -.121E-01   -.316E-01 -.149E-01 -.325E-03
   -.391E-01 -.148E+02 0.140E-02   0.626E-01 0.148E+02 -.194E-02   -.168E-01 -.462E-02 0.283E-03
   -.955E+00 0.132E+02 0.670E-02   0.952E+00 -.133E+02 -.613E-02   0.273E-02 0.628E-01 -.160E-03
   -.148E-02 0.144E+02 -.268E-01   0.313E-02 -.144E+02 0.272E-01   -.135E-02 0.213E-01 -.119E-03
   -.110E+01 -.145E+02 0.144E-01   0.175E+01 0.144E+02 -.166E-01   -.673E+00 0.144E+00 0.132E-02
   -.151E+02 0.268E+00 -.137E+01   0.151E+02 -.237E+00 0.133E+01   0.162E-01 -.305E-01 0.427E-01
   0.144E+02 0.500E-01 -.146E+01   -.145E+02 -.701E-01 0.141E+01   0.147E-01 0.191E-01 0.529E-01
   0.133E+02 0.271E+00 -.457E+00   -.134E+02 -.257E+00 0.489E+00   0.394E-01 -.140E-01 -.209E-01
   -.138E+02 -.762E-01 0.193E+01   0.138E+02 0.342E-01 -.192E+01   -.433E-01 0.379E-01 -.133E-01
   0.506E+00 -.153E+02 -.968E+00   -.483E+00 0.153E+02 0.935E+00   -.201E-01 -.175E-02 0.392E-01
   0.235E+00 0.144E+02 0.378E+00   -.248E+00 -.144E+02 -.339E+00   0.116E-01 0.328E-02 -.411E-01
   0.233E+00 0.144E+02 -.403E+00   -.246E+00 -.144E+02 0.364E+00   0.115E-01 0.348E-02 0.406E-01
   0.498E+00 -.153E+02 0.983E+00   -.475E+00 0.153E+02 -.952E+00   -.199E-01 -.197E-02 -.384E-01
   -.628E+01 0.963E+00 0.104E-01   0.631E+01 -.596E+00 -.106E-01   -.523E-01 -.366E+00 0.607E-03
   0.153E+02 -.658E+00 -.203E-01   -.154E+02 0.748E+00 0.187E-01   0.786E-01 -.886E-01 0.646E-03
   0.198E+02 -.128E+01 -.208E-01   -.197E+02 0.850E+00 0.202E-01   -.151E+00 0.440E+00 0.152E-03
   -.197E+02 -.125E+01 0.100E-02   0.196E+02 0.810E+00 -.180E-03   0.139E+00 0.445E+00 -.924E-03
   0.111E+01 0.133E+02 0.888E-02   -.111E+01 -.134E+02 -.747E-02   -.244E-02 0.482E-01 0.193E-04
   -.155E-01 -.188E+02 0.523E-02   -.105E-01 0.188E+02 -.396E-02   0.184E-01 0.154E-01 -.343E-03
   0.119E+01 -.143E+02 0.117E-01   -.185E+01 0.142E+02 -.132E-01   0.685E+00 0.149E+00 0.616E-04
   -.138E+02 -.765E-01 -.192E+01   0.138E+02 0.346E-01 0.191E+01   -.431E-01 0.382E-01 0.137E-01
[...]
   -.580E+00 -.536E-01 0.847E+02   0.584E+00 0.512E-01 -.851E+02   -.891E-02 0.127E-01 0.447E+00
   0.341E+01 0.794E+00 0.856E+02   -.346E+01 -.797E+00 -.861E+02   0.385E-01 -.129E-01 0.461E+00
   -.427E+00 0.479E+01 -.102E+03   0.422E+00 -.476E+01 0.103E+03   0.517E-02 -.317E-01 -.650E+00
   0.117E+02 -.170E+02 -.890E+02   -.119E+02 0.171E+02 0.895E+02   0.123E+00 -.162E+00 -.502E+00
   0.105E+00 -.390E+01 -.905E+02   -.938E-01 0.398E+01 0.910E+02   -.123E-01 -.742E-01 -.547E+00
   0.178E+02 0.199E+02 -.870E+02   -.180E+02 -.201E+02 0.875E+02   0.157E+00 0.170E+00 -.539E+00
   -.308E+00 0.494E+01 0.102E+03   0.304E+00 -.492E+01 -.103E+03   0.478E-02 -.295E-01 0.650E+00
   0.118E+02 -.169E+02 0.890E+02   -.120E+02 0.170E+02 -.895E+02   0.123E+00 -.161E+00 0.501E+00
   0.260E+00 -.378E+01 0.905E+02   -.245E+00 0.386E+01 -.910E+02   -.133E-01 -.746E-01 0.547E+00
   0.180E+02 0.200E+02 0.870E+02   -.182E+02 -.202E+02 -.875E+02   0.158E+00 0.168E+00 0.538E+00
   0.330E+01 0.707E+00 -.856E+02   -.335E+01 -.709E+00 0.861E+02   0.400E-01 -.146E-01 -.461E+00
   -.386E+01 0.835E+00 -.848E+02   0.391E+01 -.843E+00 0.853E+02   -.404E-01 -.431E-02 -.476E+00
   0.473E+01 0.532E+00 -.757E+02   -.475E+01 -.549E+00 0.761E+02   0.839E-02 0.153E-01 -.430E+00
   -.402E+01 0.950E-01 -.751E+02   0.405E+01 -.106E+00 0.755E+02   -.243E-01 0.151E-01 -.416E+00
   -.426E+00 -.431E+01 0.122E-01   -.264E-12 -.132E-12 0.384E-12   0.422E+00 0.432E+01 -.324E-02

 POSITION                                       TOTAL-FORCE (eV/Angst)
      7.49362     -7.49007      2.03916         0.005302      0.001927      0.010408
      3.65396      0.20285      2.04951         0.002342      0.003317     -0.014678
      7.48845     -3.64463      2.03264         0.004905     -0.005388      0.011155
     11.34634     -3.65328      2.04355         0.000816     -0.005406     -0.017731
      9.42478     -5.56760      4.38542         0.002880     -0.003085     -0.013669
      5.71273      2.10796      4.45355         0.007290     -0.004891     -0.023974
      9.42975     -1.73028      4.38184        -0.013686      0.000330     -0.009573
     13.24233     -1.71835      4.38150         0.010923      0.003640     -0.010872
      5.55726     -9.40591      8.46872         0.009783      0.004384      0.008296
      1.75235     -1.71781      8.46773        -0.005911     -0.001758      0.002576
      5.56728     -5.56300      8.46762        -0.003738      0.001512      0.009739
      9.42850     -5.56395      8.46459         0.000560     -0.003679      0.011008
      7.50078     -7.48308     10.81718         0.003622     -0.003324     -0.007884
      3.66102      0.21005     10.80051         0.001600     -0.001631      0.016398
      7.49563     -3.63761     10.81740         0.001916     -0.002871     -0.011117
     11.35337     -3.64638     10.80017        -0.000978     -0.002103      0.019653
      7.48721      0.17855      2.03563        -0.000013     -0.001059     -0.013230
     11.33247      0.21088      2.04432        -0.003032      0.000660     -0.018057
      7.48986      4.05734      2.02261        -0.003491      0.002751     -0.000127
      3.64303     -3.65080      2.04586        -0.003125     -0.004421     -0.007106
      9.27398      2.11051      4.45003        -0.006274      0.000189     -0.018535
      5.56394     -5.56643      4.38882        -0.004072     -0.001174     -0.009114
      1.74855     -1.72128      4.38854        -0.009994      0.000635     -0.002559
      5.55546     -1.73150      4.38343         0.009767      0.001085     -0.000622
      5.55868     -1.72803      8.46677         0.009709     -0.000028      0.001844
      9.43361     -1.72668      8.46184        -0.015616      0.002811      0.010391
      5.71609      2.11085      8.39014         0.008141     -0.005327      0.019822
      1.58893     -5.57733      8.40035        -0.004179     -0.001536      0.018337
      7.49448      0.18526     10.80821         0.002915     -0.004311      0.013750
      3.65118     -7.47300     10.80578        -0.005723      0.001425      0.018446
     -0.19148     -3.62658     10.82732         0.001327      0.003571      0.004000
      3.65029     -3.64387     10.81061        -0.003249     -0.002325      0.007217
      1.72590      0.48206      0.00448        -0.002944     -0.000502      0.004920
     13.25827     -0.07184     -0.01042        -0.001362     -0.001788     -0.000274
      5.58050     -7.75235     12.85774        -0.000505     -0.001648      0.001218
      1.73648      0.49261     12.84832        -0.002854     -0.000306     -0.004396
      2.01304      0.20033      6.42635         0.010825     -0.001694      0.000390
      5.39607      0.23770      6.42356         0.018084     -0.008774     -0.000718
      9.12934     -3.63622      6.42364         0.003460     -0.004776     -0.000495
      5.86428     -3.63574      6.42644        -0.003555      0.001082      0.000675
     -0.19229     -1.42118      6.42966         0.006801      0.010451     -0.000343
     11.33664     -1.98053      6.42050        -0.000272      0.009170      0.000332
      7.49672     -5.84582      6.42689         0.000338     -0.001094      0.000256
      3.64298      2.43632      6.42312        -0.024049      0.003582     -0.000968
      3.92614      2.12124      0.00514         0.005394      0.000104      0.006342
      7.20283      2.12115     -0.00128        -0.005599     -0.001064      0.001023
     11.06361     -1.72192      0.00067        -0.001120     -0.000387      0.010764
      3.94314     -5.55791     12.85758         0.000778     -0.004197     -0.007589
      9.40928      0.48219      0.00148         0.002985      0.004955      0.006180
      1.73334     -3.92491     12.84886        -0.001628     -0.004150     -0.002067
      9.41118      3.75564     -0.00167        -0.001688     -0.004320      0.002361
      1.73139     -7.19843     12.85130         0.003298      0.004967     -0.007862
      9.59267      0.24041      6.42006        -0.018832      0.001043      0.000368
      5.29224     -7.48730      6.42992        -0.009276      0.001009     -0.001079
      1.36334     -3.66863      6.43017        -0.009203      0.010678     -0.000448
      5.94140      4.02065      6.42016         0.011723      0.005832     -0.000183
      3.65603     -1.98377      6.42681         0.000560      0.005803      0.001348
      7.49503     -1.42281      6.42330        -0.007554     -0.008438      0.000850
      3.65929     -5.25078      6.42950         0.021422      0.003821     -0.001508
     11.62092      2.12251     -0.01094         0.001063     -0.003772      0.006995
[...]
      5.57336     -5.56994      1.95015         0.014242     -0.001802     -0.023704
      1.72542     -1.72316      1.94687        -0.004055      0.009955     -0.017727
      5.57438     -1.71971      1.93986        -0.005135     -0.015995     -0.013769
      7.49422      0.19170      4.45364         0.000450     -0.002337     -0.004219
     11.35206      0.18315      4.46721        -0.006752      0.006743      0.012763
      7.49433      4.08221      4.44360        -0.000415      0.006880     -0.002595
      3.69472     -3.61481      4.46503        -0.021361     -0.003883      0.002235
      7.49745      0.19483      8.39015         0.000852     -0.008778      0.005589
      3.66685     -7.50477      8.38289        -0.008296      0.003888     -0.012596
     -0.19080     -3.60567      8.40641         0.001951      0.010923      0.000608
      3.69807     -3.61152      8.39125        -0.021008      0.001373      0.000050
      5.58181     -1.71227     10.91021        -0.005644     -0.016282      0.009606
      9.41645     -1.71051     10.90022         0.004976     -0.012446      0.013449
      5.57865      2.13609     10.85227        -0.004689     -0.001817     -0.004531
      1.73221     -5.55703     10.86260         0.007093      0.003721     -0.008220
    total drift:                               -0.004013      0.006203      0.008909

  FREE ENERGIE OF THE ION-ELECTRON SYSTEM (eV)
  free  energy   TOTEN  =      -585.31081426 eV

  energy  without entropy=     -585.28186183  energy(sigma->0) =     -585.29633805

 reached required accuracy - stopping structural energy minimisation

 total charge

[...]

 magnetization (x)

# of ion       s       p       d       tot
    1        0.040   0.030   3.572   3.642
    2        0.041   0.030   3.570   3.640
    3        0.040   0.030   3.572   3.641
    4        0.041   0.030   3.569   3.639
    5        0.040   0.030   3.571   3.641
    6        0.043   0.032   3.547   3.621
    7        0.039   0.030   3.555   3.624
    8        0.040   0.030   3.560   3.630
    9        0.040   0.030   3.560   3.630
   10        0.040   0.030   3.566   3.635
   11        0.040   0.030   3.572   3.642
   12        0.040   0.030   3.571   3.641
   13        0.040   0.030   3.572   3.642
   14        0.041   0.030   3.570   3.640
   15        0.040   0.030   3.572   3.641
   16        0.041   0.030   3.569   3.639
   17        0.041   0.030   3.561   3.632
   18        0.041   0.030   3.570   3.641
   19        0.041   0.030   3.567   3.637
   20        0.041   0.030   3.566   3.636
   21        0.043   0.032   3.548   3.623
   22        0.040   0.030   3.572   3.641
   23        0.040   0.030   3.566   3.635
   24        0.039   0.030   3.562   3.631
   25        0.039   0.030   3.562   3.631
   26        0.039   0.030   3.555   3.624
   27        0.043   0.032   3.547   3.621
   28        0.043   0.032   3.548   3.622
   29        0.041   0.030   3.561   3.632
   30        0.041   0.030   3.570   3.641
   31        0.041   0.030   3.567   3.637
   32        0.041   0.030   3.566   3.636
   33        0.000   0.001   0.000   0.001
   34        0.000   0.001   0.000   0.001
   35        0.000   0.001   0.000   0.001
   36        0.000   0.001   0.000   0.001
   37        0.000   0.001   0.000   0.001
   38       -0.000   0.001   0.000   0.001
   39        0.000   0.001   0.000   0.001
   40        0.000   0.001   0.000   0.001
   41        0.000   0.001   0.000   0.001
   42       -0.000   0.001   0.000   0.001
   43        0.000   0.001   0.000   0.001
   44        0.000   0.001   0.000   0.002
   45       -0.000   0.001   0.000   0.001
   46        0.000   0.001   0.000   0.001
   47        0.000   0.001   0.000   0.001
   48        0.000   0.001   0.000   0.001
   49        0.000   0.001   0.000   0.001
   50        0.000   0.001   0.000   0.001
   51        0.000   0.001   0.000   0.001
   52        0.000   0.001   0.000   0.001
   53       -0.000   0.001   0.000   0.001
   54        0.000   0.001   0.000   0.001
   55        0.000   0.001   0.000   0.001
   56        0.000   0.001   0.000   0.001
   57       -0.000   0.001   0.000   0.001
   58        0.000   0.001   0.000   0.001
   59        0.000   0.001   0.000   0.002
   60        0.000   0.001   0.000   0.001
[...]
   97        0.016   0.065   0.000   0.081
   98        0.016   0.063   0.000   0.079
   99        0.016   0.061   0.000   0.077
  100        0.015   0.044   0.000   0.059
  101        0.015   0.056   0.000   0.071
  102        0.016   0.053   0.000   0.068
  103        0.015   0.057   0.000   0.072
  104        0.015   0.044   0.000   0.059
  105        0.015   0.056   0.000   0.071
  106        0.016   0.053   0.000   0.068
  107        0.015   0.057   0.000   0.072
  108        0.016   0.061   0.000   0.077
  109        0.016   0.061   0.000   0.077
  110        0.015   0.054   0.000   0.070
  111        0.015   0.054   0.000   0.069
tot          1.936   4.385 114.052 120.373