 vasp.6.2.0 18Jan21 (build Jan 29 2021 15:03:46) complex

 executed on             LinuxIFC date 2021.03.31  02:44:33

 INCAR:
   AEXX = 0.25
   ALGO = all
   EDIFF = 1.2e-05
   ENCUT = 520
   GGA = pe
   HFSCREEN = 0.207
   ISIF = 3
   ISMEAR = 0
   ISPIN = 2
   KPAR = 34
   LASPH = .TRUE.
   LHFCALC = .TRUE.
   LMAXFOCK = 4
   LORBIT = 11
   LREAL = .FALSE.
   LVHAR = .TRUE.
   LWAVE = .TRUE.
   MAGMOM = 0.6 0.6 0.6 0.6 0.6 0.6 0.6 0.6 0.6 5 5 5
   NCORE = 1
   NEDOS = 2000
   NELM = 200
   NELMIN = 4
   NWRITE = 1
   PREC = accurate
   PRECFOCK = fast
   SIGMA = 0.05
   TIME = 0.3

 POTCAR:    PAW_PBE Li_sv 10Sep2004
 POTCAR:    PAW_PBE O 08Apr2002
 POTCAR:    PAW_PBE S 06Sep2000
 POTCAR:    PAW_PBE Fe_pv 02Aug2007
|           W    W    AA    RRRRR   N    N  II  N    N   GGGG   !!!           |
|           W    W   A  A   R    R  NN   N  II  NN   N  G    G  !!!           |
|           W    W  A    A  R    R  N N  N  II  N N  N  G       !!!           |
|           W WW W  AAAAAA  RRRRR   N  N N  II  N  N N  G  GGG   !            |
|           WW  WW  A    A  R   R   N   NN  II  N   NN  G    G                |
|           W    W  A    A  R    R  N    N  II  N    N   GGGG   !!!           |
|     For optimal performance we recommend to set                             |
|       NCORE = 2 up to number-of-cores-per-socket                            |
|     This setting can greatly improve the performance of VASP for DFT.       |
|     The default, NCORE=1 might be grossly inefficient on modern             |
|     multi-core architectures or massively parallel machines. Do your        |
|     Unfortunately you need to use the default for GW and RPA                |
|     calculations (for HF NCORE is supported but not extensively tested      |
|     yet).                                                                   |

 POTCAR:    PAW_PBE Li_sv 10Sep2004

 POTCAR:    PAW_PBE O 08Apr2002

 POTCAR:    PAW_PBE S 06Sep2000

 POTCAR:    PAW_PBE Fe_pv 02Aug2007

  PAW_PBE Li_sv 10Sep2004               :
  PAW_PBE O 08Apr2002                   :
  PAW_PBE S 06Sep2000                   :
  PAW_PBE Fe_pv 02Aug2007               :

 POSCAR: # Compound: Li4OS4Fe3. Old comment: Fe3L
  positions in direct lattice
 exchange correlation table for  LEXCH =        8
   RHO(1)=    0.500       N(1)  =     2000
   RHO(2)=  100.500       N(2)  =     4000

 ion  position               nearest neighbor table
   1  0.861  0.231  0.370-   8 2.39   6 2.45   6 2.45   7 2.50
   2  0.139  0.630  0.769-   9 2.39   7 2.45   7 2.45   6 2.50
   3  0.583  0.802  0.940-   8 2.36   8 2.36   7 2.44   6 2.53
   4  0.417  0.060  0.198-   9 2.36   9 2.36   6 2.44   7 2.53
   5  0.000  0.431  0.569-  12 2.02  12 2.02  11 2.03  10 2.03
   6  0.784  0.864  0.003-   4 2.44   1 2.45   1 2.45   2 2.50   3 2.53  10 2.67  10 2.67  12 2.70

   7  0.216  0.997  0.136-   3 2.44   2 2.45   2 2.45   1 2.50   4 2.53  11 2.67  11 2.67  12 2.70

   8  0.657  0.183  0.322-   3 2.36   3 2.36   1 2.39  11 2.43  12 2.55  10 2.71  10 2.71
   9  0.343  0.678  0.817-   4 2.36   4 2.36   2 2.39  10 2.43  12 2.55  11 2.71  11 2.71
  10  0.707  0.526  0.664-   5 2.03   9 2.43   6 2.67   6 2.67   8 2.71   8 2.71
  11  0.293  0.336  0.474-   5 2.03   8 2.43   7 2.67   7 2.67   9 2.71   9 2.71
  12  0.000  0.931  0.069-   5 2.02   5 2.02   9 2.55   8 2.55   7 2.70   6 2.70

  LATTYP: Found a base centered monoclinic cell.
 ALAT       =    13.2427901817
 B/A-ratio  =     0.3044092594
 C/A-ratio  =     0.7001058684
 COS(beta)  =    -0.6878930708

  Lattice vectors:

 A1 = (  -4.4829385000,   5.2733982300,   0.0103026700)
 A2 = (  -4.4829385000,   3.7252983500,   3.7324237800)
 A3 = (   9.2703326900,  -0.1271289600,  -0.0528753200)

Analysis of symmetry for initial positions (statically):
 Subroutine PRICEL returns:
 Original cell was already a primitive cell.

 Routine SETGRP: Setting up the symmetry group for a
 base centered monoclinic supercell.

 Subroutine GETGRP returns: Found  2 space group operations
 (whereof  2 operations were pure point group operations)
 out of a pool of  4 trial point group operations.

The static configuration has the point symmetry C_2 .

Analysis of symmetry for dynamics (positions and initial velocities):
 Subroutine PRICEL returns:
 Original cell was already a primitive cell.

[...]

The dynamic configuration has the point symmetry C_2 .

Analysis of structural, dynamic, and magnetic symmetry:
 Subroutine PRICEL returns:
 Original cell was already a primitive cell.

 Routine SETGRP: Setting up the symmetry group for a
 base centered monoclinic supercell.

 Subroutine GETGRP returns: Found  2 space group operations
 (whereof  2 operations were pure point group operations)
 out of a pool of  4 trial point group operations.

The overall configuration has the point symmetry C_2 .

 Subroutine INISYM returns: Found  2 space group operations
 (whereof  2 operations are pure point group operations),
 and found     1 'primitive' translations

                                     Primitive cell

  volume of cell :     179.6198

  direct lattice vectors                    reciprocal lattice vectors
     9.270332690 -0.127128960 -0.052875320     0.106275194 -0.099205430 -0.041261396
     4.787394190  5.146269270 -0.042572650     0.001545057  0.191313933 -0.189092967
     4.787394190  3.598169390  3.679548460     0.001545057  0.000787929  0.268991729

  length of vectors
     9.271355120  7.028872097  7.028872097     0.151124575  0.268997320  0.268997320

  position of ions in fractional coordinates (direct lattice)
     0.860796900  0.231002780  0.370116860
     0.139203100  0.629883140  0.768997220
     0.582837900  0.801617530  0.940382700
     0.417162100  0.059617300  0.198382470
     1.000000000  0.430938850  0.569061150
     0.784454360  0.864044880  0.002938500
     0.215545640  0.997061500  0.135955120
     0.656848850  0.182961530  0.321667320
     0.343151150  0.678332680  0.817038470
     0.707324820  0.526341970  0.664493600
     0.292675180  0.335506400  0.473658030
     1.000000000  0.930904440  0.069095560

  ion indices of the primitive-cell ions
   primitive index   ion index
                 1           1
                 2           2
                 3           3
                 4           4
                 5           5
                 6           6
                 7           7
                 8           8
                 9           9
                10          10
                11          11
                12          12

 KPOINTS: # No comment

Automatic generation of k-mesh.
 Grid dimensions read from file:
 generate k-points for:    4    6    6

 Generating k-lattice:

  Cartesian coordinates                     Fractional coordinates (reciprocal lattice)
     0.026568799 -0.024801357 -0.010315349     0.250000000 -0.000000000 -0.000000000
     0.000257509  0.031885656 -0.031515494    -0.000000000  0.166666667  0.000000000
     0.000257509  0.000131321  0.044831955    -0.000000000 -0.000000000  0.166666667

  Length of vectors
     0.037781144  0.044832887  0.044832887

  Shift w.r.t. Gamma in fractional coordinates (k-lattice)
     0.000000000  0.000000000  0.000000000

 Subroutine IBZKPT returns following result:

 Found     47 irreducible k-points:

 Following reciprocal coordinates:
            Coordinates               Weight
  0.000000  0.000000  0.000000      1.000000
  0.250000  0.000000 -0.000000      2.000000
  0.500000  0.000000 -0.000000      1.000000
  0.000000  0.166667 -0.000000      4.000000
  0.250000  0.166667 -0.000000      4.000000
  0.500000  0.166667 -0.000000      4.000000
 -0.250000  0.166667  0.000000      4.000000
  0.000000  0.333333  0.000000      4.000000
  0.250000  0.333333  0.000000      4.000000
  0.500000  0.333333  0.000000      4.000000
 -0.250000  0.333333  0.000000      4.000000
 -0.000000  0.500000 -0.000000      2.000000
  0.250000  0.500000  0.000000      4.000000
  0.500000  0.500000  0.000000      2.000000
  0.000000  0.166667  0.166667      2.000000
  0.250000  0.166667  0.166667      2.000000
  0.500000  0.166667  0.166667      2.000000
 -0.250000  0.166667  0.166667      2.000000
  0.000000  0.333333  0.166667      4.000000
  0.250000  0.333333  0.166667      4.000000
  0.500000  0.333333  0.166667      4.000000
 -0.250000  0.333333  0.166667      4.000000
 -0.000000  0.500000  0.166667      4.000000
  0.250000  0.500000  0.166667      4.000000
  0.500000  0.500000  0.166667      4.000000
 -0.250000  0.500000  0.166667      4.000000
  0.000000 -0.333333  0.166667      4.000000
  0.250000 -0.333333  0.166667      4.000000
  0.500000 -0.333333  0.166667      4.000000
 -0.250000 -0.333333  0.166667      4.000000
  0.000000 -0.166667  0.166667      2.000000
  0.250000 -0.166667  0.166667      4.000000
  0.500000 -0.166667  0.166667      2.000000
 -0.000000  0.333333  0.333333      2.000000
  0.250000  0.333333  0.333333      2.000000
  0.500000  0.333333  0.333333      2.000000
 -0.250000  0.333333  0.333333      2.000000
 -0.000000  0.500000  0.333333      4.000000
  0.250000  0.500000  0.333333      4.000000
  0.500000  0.500000  0.333333      4.000000
 -0.250000  0.500000  0.333333      4.000000
 -0.000000 -0.333333  0.333333      2.000000
  0.250000 -0.333333  0.333333      4.000000
  0.500000 -0.333333  0.333333      2.000000
  0.000000  0.500000  0.500000      1.000000
  0.250000  0.500000  0.500000      2.000000
  0.500000  0.500000  0.500000      1.000000

 Following cartesian coordinates:
            Coordinates               Weight
  0.000000  0.000000  0.000000      1.000000
  0.026569 -0.024801 -0.010315      2.000000
  0.053138 -0.049603 -0.020631      1.000000
  0.000258  0.031886 -0.031515      4.000000
  0.026826  0.007084 -0.041831      4.000000
  0.053395 -0.017717 -0.052146      4.000000
 -0.026311  0.056687 -0.021200      4.000000
  0.000515  0.063771 -0.063031      4.000000
  0.027084  0.038970 -0.073346      4.000000
  0.053653  0.014169 -0.083662      4.000000
 -0.026054  0.088573 -0.052716      4.000000
  0.000773  0.095657 -0.094546      2.000000
  0.027341  0.070856 -0.104862      4.000000
  0.053910  0.046054 -0.115177      2.000000
  0.000515  0.032017  0.013316      2.000000
  0.027084  0.007216  0.003001      2.000000
  0.053653 -0.017586 -0.007314      2.000000
 -0.026054  0.056818  0.023632      2.000000
  0.000773  0.063903 -0.018199      4.000000
  0.027341  0.039101 -0.028514      4.000000
  0.053910  0.014300 -0.038830      4.000000
 -0.025796  0.088704 -0.007884      4.000000
  0.001030  0.095788 -0.049715      4.000000
  0.027599  0.070987 -0.060030      4.000000
  0.054168  0.046186 -0.070345      4.000000
 -0.025539  0.120590 -0.039399      4.000000
 -0.000258 -0.063640  0.107863      4.000000
  0.026311 -0.088441  0.097548      4.000000
  0.052880 -0.113243  0.087232      4.000000
 -0.026826 -0.038839  0.118178      4.000000
  0.000000 -0.031754  0.076347      2.000000
  0.026569 -0.056556  0.066032      4.000000
  0.053138 -0.081357  0.055717      2.000000
  0.001030  0.064034  0.026633      2.000000
  0.027599  0.039233  0.016318      2.000000
  0.054168  0.014431  0.006002      2.000000
[...]
 k-point  46 :   0.2500 0.5000 0.5000  plane waves:    4853
 k-point  47 :   0.5000 0.5000 0.5000  plane waves:    4846

 maximum and minimum number of plane-waves per node :      4874     4810

 maximum number of plane-waves:      4874
 maximum index in each direction:
   IXMAX=   17   IYMAX=   13   IZMAX=   13
   IXMIN=  -17   IYMIN=  -13   IZMIN=  -13

 serial   3D FFT for wavefunctions
 parallel 3D FFT for charge:
    minimum data exchange during FFTs selected (reduces bandwidth)

 FFT grid for exact exchange (Hartree Fock)
  NGX = 36; NGY = 28; NGZ = 28

 Radii for the augmentation spheres in the non-local exchange
 for species   1 augmentation radius   0.956 (default was   0.708)
       energy cutoff for augmentation   2080.0
 for species   2 augmentation radius   0.974 (default was   0.722)
       energy cutoff for augmentation   2080.0
 for species   3 augmentation radius   1.309 (default was   0.970)
       energy cutoff for augmentation   2080.0
 for species   4 augmentation radius   1.283 (default was   0.950)
       energy cutoff for augmentation   2080.0
 Maximum index for augmentation-charges in exchange         1479
  SETUP_FOCK is finished

 Broyden mixing: mesh for mixing (old mesh)
   NGX = 35   NGY = 27   NGZ = 27
  (NGX  =140   NGY  =108   NGZ  =108)
  gives a total of  25515 points

 charge density for first step will be calculated from the start-wavefunctions

 Maximum index for augmentation-charges         8721 (set IRDMAX)

 initial charge from wavefunction
 First call to EWALD:  gamma=   0.314
 Maximum number of real-space cells 2x 4x 4
 Maximum number of reciprocal cells 4x 3x 3

--------------------------------------- Iteration      1(   1)  ---------------------------------------

 eigenvalue-minimisations  :     0
 total energy-change (2. order) :-0.8500064E+02  (-0.1413191E-04)
 number of electron      84.0000006 magnetization      12.0000002
 augmentation part       26.7569760 magnetization       8.0017125

 Free energy of the ion-electron system (eV)
  alpha Z        PSCENC =       197.85460246
  Ewald energy   TEWEN  =     -4933.29006640
  -Hartree energ DENC   =     -3847.73832734
  -exchange      EXHF   =       235.47733515
  -V(xc)+E(xc)   XCENC  =       260.24952225
  PAW double counting   =     10285.37260734   -10574.09050862
  entropy T*S    EENTRO =        -0.00000000
  eigenvalues    EBANDS =     -1404.11080982
  atomic energy  EATOM  =      9695.27500775
  free energy    TOTEN  =       -85.00063723 eV

  energy without entropy =      -85.00063723  energy(sigma->0) =      -85.00063723
  exchange ACFDT corr.  =        -0.00000000  see jH, gK, PRB 81, 115126

[...]

--------------------------------------- Iteration      1(   4)  ---------------------------------------

 eigenvalue-minimisations  :     0
 total energy-change (2. order) :-0.6571719E-05  (-0.4204727E-05)
 number of electron      84.0000006 magnetization      12.0000002
 augmentation part       26.7564981 magnetization       8.0016814

 Free energy of the ion-electron system (eV)
  alpha Z        PSCENC =       197.85460246
  Ewald energy   TEWEN  =     -4933.29006640
  -Hartree energ DENC   =     -3847.72505146
  -exchange      EXHF   =       235.47715325
  -V(xc)+E(xc)   XCENC  =       260.24944091
  PAW double counting   =     10285.20531549   -10573.92558493
  entropy T*S    EENTRO =        -0.00000000
  eigenvalues    EBANDS =     -1404.12141896
  atomic energy  EATOM  =      9695.27500775
  free energy    TOTEN  =       -85.00067035 eV

  energy without entropy =      -85.00067035  energy(sigma->0) =      -85.00067035
  exchange ACFDT corr.  =        -0.00000000  see jH, gK, PRB 81, 115126

  average scaling for gradient   0.8566

 average (electrostatic) potential at core
  the test charge radii are     0.7079  0.7215  0.9698  0.9500
  (the norm of the test charge is              1.0000)
       1 -54.2863       2 -54.2863       3 -54.2421       4 -54.2421       5 -64.3479
       6 -82.6197       7 -82.6197       8 -82.6681       9 -82.6681      10 -72.2219
      11 -72.2219      12 -72.0028

 E-fermi :   3.8428     XC(G=0):  -8.1490     alpha+bet :-11.6375

 Fermi energy:         3.8427718574

 spin component 1

 k-point     1 :       0.0000    0.0000    0.0000
  band No.  band energies     occupation
      1     -56.8933      1.00000
      2     -56.8927      1.00000
      3     -56.6646      1.00000
      4     -55.3896      1.00000
      5     -55.3889      1.00000
      6     -55.3296      1.00000
      7     -55.3291      1.00000
      8     -55.1949      1.00000
      9     -55.1610      1.00000
     10     -44.5120      1.00000
     11     -44.4923      1.00000
     12     -44.4666      1.00000
     13     -44.4515      1.00000
     14     -16.7847      1.00000
     15     -10.3692      1.00000
     16      -9.5454      1.00000
     17      -9.4161      1.00000
     18      -9.3173      1.00000
     19      -3.4667      1.00000
     20      -2.3924      1.00000
     21      -2.3856      1.00000
     22      -2.0880      1.00000
     23      -2.0195      1.00000
     24      -1.9605      1.00000
     25      -1.6710      1.00000
     26      -1.4674      1.00000
     27      -1.3215      1.00000
     28      -1.3139      1.00000
     29      -1.0898      1.00000
     30      -0.9076      1.00000
     31      -0.7558      1.00000
     32      -0.7436      1.00000
     33      -0.0764      1.00000
     34      -0.0756      1.00000
     35       0.2892      1.00000
     36       0.3569      1.00000
     37       0.6739      1.00000
     38       0.8398      1.00000
     39       1.0452      1.00000
     40       1.4361      1.00000
     41       1.8969      1.00000
     42       1.9517      1.00000
     43       2.3252      1.00000
     44       2.3975      1.00000
     45       2.4296      1.00000
     46       2.7543      1.00000
     47       2.8720      1.00000
     48       3.0121      1.00000
     49       7.5248      0.00000
     50       8.9656      0.00000
     51       9.1127      0.00000
     52       9.3759      0.00000
     53      10.0572      0.00000
     54      10.6279      0.00000
     55      10.9423      0.00000
     56      11.4002      0.00000
     57      11.7311      0.00000
     58      11.9358      0.00000
     59      12.1979      0.00000
     60      12.2589      0.00000

[...]

 k-point    47 :       0.5000    0.5000    0.5000
  band No.  band energies     occupation
      1     -56.8933      1.00000
      2     -56.8927      1.00000
      3     -56.6646      1.00000
      4     -55.3896      1.00000
      5     -55.3889      1.00000
      6     -55.3296      1.00000
      7     -55.3291      1.00000
      8     -55.1949      1.00000
      9     -55.1611      1.00000
     10     -44.5120      1.00000
     11     -44.4923      1.00000
     12     -44.4666      1.00000
     13     -44.4515      1.00000
     14     -16.7844      1.00000
     15     -10.2274      1.00000
     16      -9.7204      1.00000
     17      -9.4354      1.00000
     18      -9.3227      1.00000
     19      -3.4828      1.00000
     20      -2.3886      1.00000
     21      -2.3408      1.00000
     22      -2.1525      1.00000
     23      -1.9569      1.00000
     24      -1.7710      1.00000
     25      -1.6362      1.00000
     26      -1.2897      1.00000
     27      -1.2601      1.00000
     28      -1.2388      1.00000
     29      -0.9539      1.00000
     30      -0.9071      1.00000
     31      -0.8265      1.00000
     32      -0.7781      1.00000
     33      -0.1664      1.00000
     34      -0.0788      1.00000
     35       0.3079      1.00000
     36       0.3245      1.00000
     37       0.7999      1.00000
     38       0.8875      1.00000
     39       1.1329      1.00000
     40       1.1575      1.00000
     41       1.5628      1.00000
     42       1.7345      1.00000
     43       1.8187      1.00000
     44       1.8330      1.00000
     45       2.7825      1.00000
     46       3.0702      1.00000
     47       3.1158      1.00000
     48       3.1363      1.00000
     49       8.6043      0.00000
     50       8.8918      0.00000
     51       9.1082      0.00000
     52       9.2195      0.00000
     53       9.7221      0.00000
     54      10.2448      0.00000
     55      10.2782      0.00000
     56      10.4818      0.00000
     57      10.6501      0.00000
     58      11.4059      0.00000
     59      11.8986      0.00000
     60      13.2089      0.00000
 Fermi energy:         3.8427718574

 spin component 2

[...]

 k-point    47 :       0.5000    0.5000    0.5000
  band No.  band energies     occupation
      1     -50.2359      1.00000
      2     -50.2342      1.00000
      3     -50.2013      1.00000
      4     -50.2001      1.00000
      5     -50.1877      1.00000
      6     -50.1863      1.00000
      7     -50.0155      1.00000
      8     -49.9762      1.00000
      9     -49.9588      1.00000
     10     -44.4986      1.00000
     11     -44.4791      1.00000
     12     -44.4533      1.00000
     13     -44.4383      1.00000
     14     -16.0866      1.00000
     15      -9.9662      1.00000
     16      -9.5190      1.00000
     17      -9.1644      1.00000
     18      -9.1019      1.00000
     19      -2.0453      1.00000
     20      -0.9071      1.00000
     21      -0.8513      1.00000
     22      -0.8276      1.00000
     23      -0.1958      1.00000
     24       0.1935      1.00000
     25       0.8862      1.00000
     26       1.1188      1.00000
     27       1.3954      1.00000
     28       1.4899      1.00000
     29       1.5993      1.00000
     30       1.7649      1.00000
     31       1.8186      1.00000
     32       2.1100      1.00000
     33       2.2435      1.00000
     34       2.9499      1.00000
     35       2.9724      1.00000
     36       3.3822      1.00000
     37       5.5871      0.00000
     38       6.6965      0.00000
     39       7.2126      0.00000
     40       7.2318      0.00000
     41       7.5999      0.00000
     42       7.6245      0.00000
     43       8.0948      0.00000
     44       8.1692      0.00000
     45       8.2624      0.00000
     46       8.5021      0.00000
     47       8.5050      0.00000
     48       8.6767      0.00000
     49       9.2742      0.00000
     50       9.3552      0.00000
     51       9.4834      0.00000
     52       9.7218      0.00000
     53      10.1218      0.00000
     54      10.5902      0.00000
     55      10.9763      0.00000
     56      11.1885      0.00000
     57      11.2017      0.00000
     58      11.8795      0.00000
     59      12.9047      0.00000
     60      13.5738      0.00000

 soft charge-density along one line, spin component           1
         0         1         2         3         4         5         6         7         8         9
 total charge-density along one line

 soft charge-density along one line, spin component           2
         0         1         2         3         4         5         6         7         8         9
 total charge-density along one line

------------------------ aborting loop because EDIFF is reached ----------------------------------------

 total charge

# of ion       s       p       d       tot
    1        2.020   0.063   0.000   2.083
    2        2.020   0.063   0.000   2.083
    3        2.022   0.068   0.000   2.091
    4        2.022   0.068   0.000   2.091
    5        1.558   3.512   0.000   5.069
    6        1.304   2.475   0.000   3.779
    7        1.304   2.475   0.000   3.779
    8        1.308   2.500   0.000   3.808
    9        1.308   2.500   0.000   3.808
   10        0.232   6.214   5.897  12.342
   11        0.232   6.214   5.897  12.342
   12        0.238   6.240   5.922  12.400
tot         15.566  32.395  17.715  65.676

 magnetization (x)

[...]

  FORCE on cell =-STRESS in cart. coord.  units (eV):
  Direction    XX          YY          ZZ          XY          YZ          ZX
  Alpha Z   197.85460   197.85460   197.85460
  Ewald   -1927.75731 -2186.29783  -819.24342 -1339.68440  -687.51578  -557.19983
  Hartree   996.93678   856.20831  1994.58336 -1096.07826  -572.50869  -455.87970
  E(xc)    -333.80208  -334.06794  -333.78534    -0.29299    -0.14212    -0.12186
  Local    -395.54593   -19.59091 -2511.05462  2414.48502  1253.00060  1004.23013
  n-local   388.93413   389.99815   389.24062    -0.40375     0.71246     0.00053
  augment   382.83330   396.41202   390.88652    10.81606     2.77906     4.49897
  Kinetic  1027.19697  1041.30448  1031.68935    15.55846     4.84628     6.80666
  Fock     -336.71054  -342.08117  -340.02386    -4.54927    -1.02868    -1.86989
  Total      -0.06007    -0.08400    -0.02908     0.03500    -0.02762     0.01553
  in kB      -0.53577    -0.74923    -0.25940     0.31217    -0.24635     0.13850

 VOLUME and BASIS-vectors are now :
  energy-cutoff  :      520.00
  volume of cell :      179.62
      direct lattice vectors                 reciprocal lattice vectors
     9.270332690 -0.127128960 -0.052875320     0.106275194 -0.099205430 -0.041261396
     4.787394190  5.146269270 -0.042572650     0.001545057  0.191313933 -0.189092967
     4.787394190  3.598169390  3.679548460     0.001545057  0.000787929  0.268991729

  length of vectors
     9.271355120  7.028872097  7.028872097     0.151124575  0.268997320  0.268997320

 FORCES acting on ions:
    Electron-Ion                     Ewald-Force                    Non-Local-Force
   -.577E+01 -.122E+02 -.509E+01   0.525E+01 0.123E+02 0.511E+01   0.531E+00 -.446E-01 -.198E-01
   0.577E+01 0.122E+02 0.510E+01   -.525E+01 -.123E+02 -.512E+01   -.531E+00 0.455E-01 0.176E-01
   -.733E+02 -.510E+02 -.212E+02   0.728E+02 0.507E+02 0.211E+02   0.451E+00 0.350E+00 0.145E+00
   0.733E+02 0.510E+02 0.212E+02   -.728E+02 -.507E+02 -.211E+02   -.451E+00 -.349E+00 -.146E+00
   -.393E-05 0.538E-01 -.129E+00   0.390E-10 -.533E-01 0.128E+00   -.194E-18 -.225E-02 0.542E-02
   0.197E+03 0.138E+03 0.576E+02   -.198E+03 -.139E+03 -.578E+02   0.547E+00 0.485E+00 0.201E+00
   -.197E+03 -.138E+03 -.573E+02   0.198E+03 0.139E+03 0.575E+02   -.547E+00 -.485E+00 -.202E+00
   -.155E+03 -.163E+03 -.676E+02   0.156E+03 0.163E+03 0.679E+02   -.782E+00 -.703E+00 -.294E+00
   0.155E+03 0.163E+03 0.677E+02   -.156E+03 -.163E+03 -.680E+02   0.782E+00 0.704E+00 0.291E+00
   0.412E+03 -.268E+02 -.114E+02   -.411E+03 0.263E+02 0.112E+02   -.129E+01 0.437E+00 0.200E+00
   -.412E+03 0.270E+02 0.109E+02   0.411E+03 -.265E+02 -.107E+02   0.129E+01 -.450E+00 -.168E+00
   -.463E-06 -.103E+00 0.247E+00   -.207E-09 0.100E+00 -.241E+00   0.629E-20 0.264E-02 -.635E-02
   0.221E-04 0.114E-01 -.275E-01   -.843E-16 0.294E-13 0.281E-13   0.629E-20 -.101E-01 0.244E-01

 POSITION                                       TOTAL-FORCE (eV/Angst)
     10.85767      2.41111      1.30651         0.019966      0.011925      0.003672
      7.98745      5.99083      2.79539        -0.019966     -0.011012     -0.005868
     13.74274      7.43490      3.39524         0.015277      0.004371      0.001436
      5.10238      0.96759      0.70536        -0.015277     -0.004100     -0.002087
      4.78739      4.26531      2.07554         0.000000     -0.002111      0.005076
     11.42274      4.35745     -0.06745        -0.010147     -0.003355     -0.002746
      7.42238      5.59293      0.44641         0.010147      0.004313      0.000443
      8.50506      2.01548      1.14107        -0.016878      0.013783      0.005187
     10.34006      6.38710      2.95931         0.016878     -0.013396     -0.006117
     12.25814      5.00974      2.38523        -0.003959      0.019733      0.009679
      6.58699      3.39370      1.71309         0.003959     -0.020777     -0.007170
      4.78739      5.03930      0.21461         0.000000      0.000626     -0.001506
    total drift:                                0.000022      0.000079     -0.000218

  FREE ENERGIE OF THE ION-ELECTRON SYSTEM (eV)
  free  energy   TOTEN  =       -85.00067035 eV

  energy  without entropy=      -85.00067035  energy(sigma->0) =      -85.00067035

 writing wavefunctions

 total charge

[...]

 magnetization (x)

# of ion       s       p       d       tot
    1        0.002   0.003   0.000   0.005
    2        0.002   0.003   0.000   0.005
    3        0.002   0.003   0.000   0.005
    4        0.002   0.003   0.000   0.005
    5        0.020   0.214   0.000   0.234
    6        0.013   0.069   0.000   0.083
    7        0.013   0.069   0.000   0.083
    8        0.017   0.086   0.000   0.103
    9        0.017   0.086   0.000   0.103
   10        0.028   0.019   3.574   3.620
   11        0.028   0.019   3.574   3.620
   12        0.028   0.018   3.579   3.626
tot          0.170   0.595  10.727  11.492