 vasp.6.2.0 18Jan21 (build Feb  9 2021 11:43:09) complex
 executed on       CrayXC_GCC_OMP date 2021.05.02  08:00:34

 INCAR:
   AEXX = 0.25
   ALGO = all
   EDIFF = 2.8e-05
   ENCUT = 520
   GGA = pe
   HFSCREEN = 0.207
   ISMEAR = 0
   ISPIN = 2
   KPAR = 14
   LASPH = .TRUE.
   LHFCALC = .TRUE.
   LMAXFOCK = 4
   LORBIT = 11
   LREAL = .FALSE.
   LVHAR = .TRUE.
   LWAVE = .TRUE.
   MAGMOM = 0.6 0.6 0.6 0.6 0.6 0.6 0.6 0.6 0.6 0.6 0.6 0.6 0.6 0.6 0.6 0.6 0.6 0.6 0.6 0.6 5 5 5 5 5 5 5 5
   NCORE = 1
   NEDOS = 2000
   NELM = 200
   NELMIN = 4
   NWRITE = 1
   PREC = accurate
   PRECFOCK = fast
   SIGMA = 0.05
   TIME = 0.3

 POTCAR:    PAW_PBE Li_sv 10Sep2004
 POTCAR:    PAW_PBE O 08Apr2002
 POTCAR:    PAW_PBE S 06Sep2000
 POTCAR:    PAW_PBE Fe_pv 02Aug2007
 POTCAR:    PAW_PBE Li_sv 10Sep2004

 POTCAR:    PAW_PBE O 08Apr2002

 POTCAR:    PAW_PBE S 06Sep2000

 POTCAR:    PAW_PBE Fe_pv 02Aug2007

  PAW_PBE Li_sv 10Sep2004               :
  PAW_PBE O 08Apr2002                   :
  PAW_PBE S 06Sep2000                   :
  PAW_PBE Fe_pv 02Aug2007               :

 POSCAR: # Compound: Li8O4S8Fe8. Old comment: Fe8
  positions in direct lattice
 exchange correlation table for  LEXCH =        8
   RHO(1)=    0.500       N(1)  =     2000
   RHO(2)=  100.500       N(2)  =     4000

 ion  position               nearest neighbor table
   1  0.224  0.062  0.000-   9 1.93  10 1.93  13 2.52  17 2.52
   2  0.724  0.990  0.000-  10 1.93   9 1.93  16 2.52  20 2.52
   3  0.224  0.490  0.000-  11 1.93  12 1.93  13 2.52  17 2.52
   4  0.724  0.562  0.000-  12 1.93  11 1.93  16 2.52  20 2.52
   5  0.510  0.276  1.000-   9 1.93  11 1.93  18 2.52  14 2.52
   6  0.938  0.276  1.000-  10 1.93  12 1.93  18 2.52  14 2.52
   7  0.438  0.776  1.000-  11 1.93   9 1.93  19 2.52  15 2.52
   8  0.010  0.776  1.000-  12 1.93  10 1.93  19 2.52  15 2.52
   9  0.474  0.026  1.000-   5 1.93   1 1.93   2 1.93   7 1.93  22 2.01  27 2.01
  10  0.974  0.026  0.000-   2 1.93   6 1.93   8 1.93   1 1.93  28 2.01  21 2.01
  11  0.474  0.526  0.000-   3 1.93   7 1.93   5 1.93   4 1.93  25 2.01  24 2.01
  12  0.974  0.526  1.000-   8 1.93   4 1.93   3 1.93   6 1.93  23 2.01  26 2.01
  13  0.300  0.352  0.303-  25 2.41   1 2.52   3 2.52  22 2.70  21 2.70  24 2.70  23 2.70
  14  0.800  0.352  0.303-  26 2.41   6 2.52   5 2.52  21 2.70  23 2.70  22 2.70  24 2.70
  15  0.300  0.852  0.303-  27 2.41   7 2.52   8 2.52  24 2.70  22 2.70  23 2.70  21 2.70
  16  0.800  0.852  0.303-  28 2.41   4 2.52   2 2.52  23 2.70  24 2.70  21 2.70  22 2.70
  17  0.148  0.200  0.697-  21 2.41   1 2.52   3 2.52  27 2.70  28 2.70  25 2.70  26 2.70
  18  0.648  0.200  0.697-  22 2.41   6 2.52   5 2.52  28 2.70  26 2.70  27 2.70  25 2.70
  19  0.148  0.700  0.697-  23 2.41   7 2.52   8 2.52  25 2.70  27 2.70  26 2.70  28 2.70
  20  0.648  0.700  0.697-  24 2.41   4 2.52   2 2.52  26 2.70  25 2.70  28 2.70  27 2.70
  21  0.053  0.105  0.317-  10 2.01  17 2.41  14 2.70  13 2.70  16 2.70  15 2.70
  22  0.553  0.105  0.317-   9 2.01  18 2.41  13 2.70  15 2.70  14 2.70  16 2.70
  23  0.053  0.605  0.317-  12 2.01  19 2.41  16 2.70  14 2.70  15 2.70  13 2.70
  24  0.553  0.605  0.317-  11 2.01  20 2.41  15 2.70  16 2.70  13 2.70  14 2.70
  25  0.395  0.447  0.683-  11 2.01  13 2.41  19 2.70  20 2.70  17 2.70  18 2.70
  26  0.895  0.447  0.683-  12 2.01  14 2.41  20 2.70  18 2.70  19 2.70  17 2.70
  27  0.395  0.947  0.683-   9 2.01  15 2.41  17 2.70  19 2.70  18 2.70  20 2.70
  28  0.895  0.947  0.683-  10 2.01  16 2.41  18 2.70  17 2.70  20 2.70  19 2.70

  LATTYP: Found a base centered monoclinic cell.
 ALAT       =    10.8025525098
 B/A-ratio  =     0.9999937282
 C/A-ratio  =     0.6385006236
 COS(beta)  =    -0.3916303590

  Lattice vectors:

 A1 = (   7.6385258900,   0.0013578800,  -0.0065612300)
 A2 = (  -0.0013156100,   7.6385366000,  -0.0065612500)
 A3 = (  -1.9042818400,  -1.9049505600,   6.3497641300)

Analysis of symmetry for initial positions (statically):
 Subroutine PRICEL returns following result:

  LATTYP: Found a simple monoclinic cell.
 ALAT       =     5.4012762549
 B/A-ratio  =     0.9999937282
 C/A-ratio  =     1.2769131810
 COS(beta)  =    -0.3914812304

[...]

   2 primitive cells build up your supercell.

 Routine SETGRP: Setting up the symmetry group for a
 base centered monoclinic supercell.

 Subroutine GETGRP returns: Found  2 space group operations
 (whereof  1 operations were pure point group operations)
 out of a pool of  4 trial point group operations.

The static configuration has the point symmetry C_1 .
 The point group associated with its full space group is C_2 .

Analysis of symmetry for dynamics (positions and initial velocities):
 Subroutine PRICEL returns following result:

[...]

The dynamic configuration has the point symmetry C_1 .
 The point group associated with its full space group is C_2 .

Analysis of structural, dynamic, and magnetic symmetry:
 Subroutine PRICEL returns following result:

  LATTYP: Found a simple monoclinic cell.
 ALAT       =     5.4012762549
 B/A-ratio  =     0.9999937282
 C/A-ratio  =     1.2769131810
 COS(beta)  =    -0.3914812304

  Lattice vectors:

 A1 = (   3.8186051400,   3.8199472400,  -0.0065612400)
 A2 = (   3.8199207500,  -3.8185893600,   0.0000000100)
 A3 = (  -1.9143233000,  -1.9149966800,  -6.3432028900)

   2 primitive cells build up your supercell.

 Routine SETGRP: Setting up the symmetry group for a
 base centered monoclinic supercell.

 Subroutine GETGRP returns: Found  2 space group operations
 (whereof  1 operations were pure point group operations)
 out of a pool of  4 trial point group operations.

The overall configuration has the point symmetry C_1 .
 The point group associated with its full space group is C_2 .

 Subroutine INISYM returns: Found  2 space group operations
 (whereof  1 operations are pure point group operations),
 and found     2 'primitive' translations

                                     Primitive cell

  volume of cell :     185.1499

  direct lattice vectors                    reciprocal lattice vectors
     3.818605140  3.819947240 -0.006561240     0.130824197  0.130869810 -0.078990861
     3.819920750 -3.818589360  0.000000010     0.130938580 -0.130892576  0.000000012
    -1.914323300 -1.914996680 -6.343202890    -0.000135321 -0.000135368 -0.157567358

  length of vectors
     5.401276255  5.401242379  6.896960844     0.201199985  0.185142589  0.157567474

  position of ions in fractional coordinates (direct lattice)
     0.286536960  0.161858130  0.999905390
     0.713824150  0.734568170  0.999887500
     0.786175860  0.234568180  0.000112500
     0.213463030  0.661858120  0.000094610
     0.499995200  0.448173570  0.000001690
     0.000005810  0.948173580  0.999998310
     0.348397630  0.948194480  0.696792150
     0.848400130  0.448199130  0.696802860
     0.651599870  0.948199130  0.303197140
     0.151602370  0.448194480  0.303207850
     0.841520280  0.948157360  0.683027040
     0.341506680  0.448132610  0.683032890
     0.158493320  0.948132610  0.316967110
     0.658479720  0.448157360  0.316972960

  ion indices of the primitive-cell ions
   primitive index   ion index
                 1           1
                 2           3
                 3           5
                 4           7
                 5           9
                 6          10
                 7          13
                 8          15
                 9          17
                10          19
                11          21
                12          22
                13          28
                14          27

 KPOINTS: # No comment

Automatic generation of k-mesh.
 Grid dimensions read from file:
 generate k-points for:    3    3    4

 Generating k-lattice:

  Cartesian coordinates                     Fractional coordinates (reciprocal lattice)
     0.043649683  0.000018767  0.013096085     0.333333333 -0.000000000 -0.000000000
     0.000003490  0.043649626  0.013096081    -0.000000000  0.333333333  0.000000000
     0.000033830  0.000033842  0.039391840    -0.000000000 -0.000000000  0.250000000

  Length of vectors
     0.045571950  0.045571890  0.039391869

  Shift w.r.t. Gamma in fractional coordinates (k-lattice)
     0.000000000  0.000000000  0.000000000

 Subroutine IBZKPT returns following result:

 Found     14 irreducible k-points:

 Following reciprocal coordinates:
            Coordinates               Weight
  0.000000  0.000000  0.000000      1.000000
  0.333333  0.000000  0.000000      4.000000
  0.333333  0.333333  0.000000      2.000000
 -0.333333  0.333333  0.000000      2.000000
  0.000000  0.000000  0.250000      2.000000
  0.333333  0.000000  0.250000      4.000000
 -0.333333  0.000000  0.250000      4.000000
  0.333333  0.333333  0.250000      2.000000
 -0.333333  0.333333  0.250000      4.000000
 -0.333333 -0.333333  0.250000      2.000000
  0.000000  0.000000  0.500000      1.000000
  0.333333  0.000000  0.500000      4.000000
  0.333333  0.333333  0.500000      2.000000
 -0.333333  0.333333  0.500000      2.000000

 Following cartesian coordinates:
            Coordinates               Weight
  0.000000  0.000000  0.000000      1.000000
  0.043650  0.000019  0.013096      4.000000
  0.043653  0.043668  0.026192      2.000000
 -0.043646  0.043631 -0.000000      2.000000
  0.000034  0.000034  0.039392      2.000000
  0.043684  0.000053  0.052488      4.000000
 -0.043616  0.000015  0.026296      4.000000
  0.043687  0.043702  0.065584      2.000000
 -0.043612  0.043665  0.039392      4.000000
 -0.043619 -0.043635  0.013200      2.000000
  0.000068  0.000068  0.078784      1.000000
  0.043717  0.000086  0.091880      4.000000
  0.043721  0.043736  0.104976      2.000000
 -0.043579  0.043699  0.078784      2.000000

 Subroutine IBZKPT_HF returns following result:

 Found     36 k-points in 1st BZ
 the following     36 k-points will be used (e.g. in the exchange kernel)
 Following reciprocal coordinates:   # in IRBZ
  0.000000  0.000000  0.000000    0.02777778   1 t-inv F
  0.333333  0.000000  0.000000    0.02777778   2 t-inv F
  0.333333  0.333333  0.000000    0.02777778   3 t-inv F
 -0.333333  0.333333  0.000000    0.02777778   4 t-inv F
  0.000000  0.000000  0.250000    0.02777778   5 t-inv F
  0.333333  0.000000  0.250000    0.02777778   6 t-inv F
 -0.333333  0.000000  0.250000    0.02777778   7 t-inv F
  0.333333  0.333333  0.250000    0.02777778   8 t-inv F
 -0.333333  0.333333  0.250000    0.02777778   9 t-inv F
 -0.333333 -0.333333  0.250000    0.02777778  10 t-inv F
  0.000000  0.000000  0.500000    0.02777778  11 t-inv F
  0.333333  0.000000  0.500000    0.02777778  12 t-inv F
  0.333333  0.333333  0.500000    0.02777778  13 t-inv F
 -0.333333  0.333333  0.500000    0.02777778  14 t-inv F
 -0.000000 -0.333333 -0.000000    0.02777778   2 t-inv F
 -0.333333 -0.333333 -0.000000    0.02777778   3 t-inv F
 -0.000000 -0.000000 -0.250000    0.02777778   5 t-inv F
 -0.000000 -0.333333 -0.250000    0.02777778   6 t-inv F
 -0.000000  0.333333 -0.250000    0.02777778   7 t-inv F
 -0.333333 -0.333333 -0.250000    0.02777778   8 t-inv F
 -0.333333  0.333333 -0.250000    0.02777778   9 t-inv F
[...]
     16     -54.3028      1.00000
     17     -54.3023      1.00000
     18     -54.3020      1.00000
     19     -54.3020      1.00000
     20     -54.3019      1.00000
     21     -54.3018      1.00000
     22     -54.3018      1.00000
     23     -54.3013      1.00000
     24     -54.3011      1.00000
     25     -43.0749      1.00000
     26     -43.0471      1.00000
     27     -43.0471      1.00000
     28     -43.0459      1.00000
     29     -43.0459      1.00000
     30     -43.0450      1.00000
     31     -43.0450      1.00000
     32     -43.0211      1.00000
     33     -15.3905      1.00000
     34     -15.3304      1.00000
     35     -15.3304      1.00000
     36     -15.2903      1.00000
     37      -9.5692      1.00000
     38      -8.8045      1.00000
     39      -8.8045      1.00000
     40      -8.7203      1.00000
     41      -8.6487      1.00000
     42      -8.6487      1.00000
     43      -8.5749      1.00000
     44      -8.4304      1.00000
     45      -2.4955      1.00000
     46      -2.4726      1.00000
     47      -2.4726      1.00000
     48      -2.1536      1.00000
     49      -1.6206      1.00000
     50      -1.6206      1.00000
     51      -1.4841      1.00000
     52      -1.4841      1.00000
     53      -1.3930      1.00000
     54      -1.2865      1.00000
     55      -1.1182      1.00000
     56      -1.0927      1.00000
     57      -1.0739      1.00000
     58      -1.0738      1.00000
     59      -1.0335      1.00000
     60      -0.9849      1.00000
[...]
    146      14.3648      0.00000
    147      14.3648      0.00000
    148      14.4307      0.00000
    149      14.4307      0.00000
    150      14.5080      0.00000
    151      15.0765      0.00000
    152      15.3568      0.00000
    153      15.4087      0.00000
    154      15.7549      0.00000
    155      15.7766      0.00000
    156      16.1065      0.00000
    157      16.1193      0.00000
    158      16.1193      0.00000
    159      16.2414      0.00000
    160      16.8437      0.00000

[...]

 k-point    14 :      -0.3333    0.3333    0.5000
  band No.  band energies     occupation
      1     -55.8580      1.00000
      2     -55.8580      1.00000
      3     -55.8579      1.00000
      4     -55.8574      1.00000
      5     -55.8573      1.00000
      6     -55.8569      1.00000
      7     -55.8569      1.00000
      8     -55.8569      1.00000
      9     -54.3041      1.00000
     10     -54.3038      1.00000
     11     -54.3038      1.00000
     12     -54.3037      1.00000
     13     -54.3034      1.00000
     14     -54.3030      1.00000
     15     -54.3029      1.00000
     16     -54.3026      1.00000
     17     -54.3025      1.00000
     18     -54.3025      1.00000
     19     -54.3024      1.00000
     20     -54.3021      1.00000
     21     -54.3016      1.00000
     22     -54.3015      1.00000
     23     -54.3015      1.00000
     24     -54.3015      1.00000
     25     -43.0674      1.00000
     26     -43.0584      1.00000
     27     -43.0580      1.00000
     28     -43.0525      1.00000
     29     -43.0390      1.00000
     30     -43.0349      1.00000
     31     -43.0346      1.00000
     32     -43.0270      1.00000
     33     -15.3603      1.00000
     34     -15.3332      1.00000
     35     -15.3331      1.00000
     36     -15.3050      1.00000
     37      -9.3172      1.00000
     38      -9.0009      1.00000
     39      -9.0004      1.00000
     40      -8.7101      1.00000
     41      -8.6856      1.00000
     42      -8.5858      1.00000
     43      -8.5586      1.00000
     44      -8.5582      1.00000
     45      -2.3513      1.00000
     46      -2.3512      1.00000
     47      -2.1374      1.00000
     48      -2.0876      1.00000
     49      -1.4937      1.00000
     50      -1.4572      1.00000
     51      -1.4572      1.00000
     52      -1.3084      1.00000
     53      -1.1996      1.00000
     54      -1.1995      1.00000
     55      -1.1781      1.00000
     56      -1.1529      1.00000
     57      -1.0912      1.00000
     58      -1.0501      1.00000
     59      -1.0499      1.00000
     60      -0.8449      1.00000
[...]
    146      13.7137      0.00000
    147      13.8604      0.00000
    148      13.8609      0.00000
    149      13.8650      0.00000
    150      14.1974      0.00000
    151      14.1977      0.00000
    152      14.2717      0.00000
    153      14.7689      0.00000
    154      14.8556      0.00000
    155      14.8559      0.00000
    156      15.0290      0.00000
    157      15.1589      0.00000
    158      15.6142      0.00000
    159      15.6153      0.00000
    160      15.6385      0.00000
 Fermi energy:         5.0184175660

 spin component 2

[...]

 k-point    14 :      -0.3333    0.3333    0.5000
  band No.  band energies     occupation
      1     -49.1992      1.00000
      2     -49.1984      1.00000
      3     -49.1983      1.00000
      4     -49.1977      1.00000
      5     -49.1964      1.00000
      6     -49.1962      1.00000
      7     -49.1961      1.00000
      8     -49.1955      1.00000
      9     -49.1607      1.00000
     10     -49.1601      1.00000
     11     -49.1600      1.00000
     12     -49.1597      1.00000
     13     -49.1588      1.00000
     14     -49.1583      1.00000
     15     -49.1579      1.00000
     16     -49.1575      1.00000
     17     -49.1572      1.00000
     18     -49.1571      1.00000
     19     -49.1568      1.00000
     20     -49.1565      1.00000
     21     -49.1561      1.00000
     22     -49.1560      1.00000
     23     -49.1556      1.00000
     24     -49.1554      1.00000
     25     -43.0683      1.00000
     26     -43.0593      1.00000
     27     -43.0589      1.00000
     28     -43.0535      1.00000
     29     -43.0401      1.00000
     30     -43.0361      1.00000
     31     -43.0358      1.00000
     32     -43.0283      1.00000
     33     -14.9536      1.00000
     34     -14.9263      1.00000
     35     -14.9262      1.00000
     36     -14.8982      1.00000
     37      -9.0220      1.00000
     38      -8.7028      1.00000
     39      -8.7024      1.00000
     40      -8.3852      1.00000
     41      -8.3430      1.00000
     42      -8.2463      1.00000
     43      -8.2334      1.00000
     44      -8.2330      1.00000
     45      -1.0947      1.00000
     46      -1.0947      1.00000
     47      -0.7058      1.00000
     48      -0.4888      1.00000
     49      -0.3083      1.00000
     50      -0.2244      1.00000
     51      -0.2242      1.00000
     52      -0.1784      1.00000
     53       0.1016      1.00000
     54       0.1833      1.00000
     55       0.1835      1.00000
     56       0.2783      1.00000
     57       0.7637      1.00000
     58       0.7639      1.00000
     59       0.8209      1.00000
     60       0.9028      1.00000
[...]
    146      14.3744      0.00000
    147      14.5362      0.00000
    148      14.5362      0.00000
    149      14.7064      0.00000
    150      14.7262      0.00000
    151      14.7268      0.00000
    152      15.1095      0.00000
    153      15.4051      0.00000
    154      15.5341      0.00000
    155      15.5347      0.00000
    156      15.5994      0.00000
    157      15.6520      0.00000
    158      16.0387      0.00000
    159      16.0400      0.00000
    160      16.0696      0.00000

 soft charge-density along one line, spin component           1
         0         1         2         3         4         5         6         7         8         9
 total charge-density along one line

 soft charge-density along one line, spin component           2
         0         1         2         3         4         5         6         7         8         9
 total charge-density along one line

------------------------ aborting loop because EDIFF is reached ----------------------------------------

 total charge

# of ion       s       p       d       tot
    1        2.025   0.074   0.000   2.099
    2        2.025   0.074   0.000   2.099
    3        2.025   0.074   0.000   2.099
    4        2.025   0.074   0.000   2.099
    5        2.025   0.074   0.000   2.099
    6        2.025   0.074   0.000   2.099
    7        2.025   0.074   0.000   2.099
    8        2.025   0.074   0.000   2.099
    9        1.553   3.548   0.000   5.101
   10        1.553   3.548   0.000   5.101
   11        1.553   3.548   0.000   5.101
   12        1.553   3.548   0.000   5.101
   13        1.310   2.469   0.000   3.779
   14        1.310   2.469   0.000   3.779
   15        1.310   2.469   0.000   3.779
   16        1.310   2.469   0.000   3.779
   17        1.310   2.469   0.000   3.779
   18        1.310   2.469   0.000   3.779
   19        1.310   2.469   0.000   3.779
   20        1.310   2.469   0.000   3.779
   21        0.235   6.216   5.900  12.351
   22        0.235   6.216   5.900  12.351
   23        0.235   6.216   5.900  12.351
   24        0.235   6.216   5.900  12.351
   25        0.235   6.216   5.900  12.351
   26        0.235   6.216   5.900  12.351
   27        0.235   6.216   5.900  12.351
   28        0.235   6.216   5.900  12.351
tot         34.769  84.262  47.203 166.234

 magnetization (x)

[...]

 VOLUME and BASIS-vectors are now :
  energy-cutoff  :      520.00
  volume of cell :      370.30
      direct lattice vectors                 reciprocal lattice vectors
     7.638525890  0.001357880 -0.006561230     0.130949049  0.000056301  0.039288254
    -0.001315610  7.638536600 -0.006561250     0.000010469  0.130948878  0.039288243
    -1.904281840 -1.904950560  6.349764130     0.000135321  0.000135368  0.157567358

  length of vectors
     7.638528829  7.638539531  6.897436514     0.136715850  0.136715671  0.157567474

 FORCES acting on ions:
    Electron-Ion                     Ewald-Force                    Non-Local-Force
   0.258E+00 -.140E+02 0.581E-01   -.252E+00 0.141E+02 -.587E-01   -.151E-01 -.833E-01 -.119E-02
   0.258E+00 0.140E+02 0.309E-01   -.251E+00 -.141E+02 -.319E-01   -.156E-01 0.825E-01 -.104E-02
   0.258E+00 0.140E+02 0.309E-01   -.251E+00 -.141E+02 -.319E-01   -.156E-01 0.825E-01 -.104E-02
   0.258E+00 -.140E+02 0.581E-01   -.252E+00 0.141E+02 -.587E-01   -.151E-01 -.833E-01 -.119E-02
   -.140E+02 -.262E+00 -.309E-01   0.141E+02 0.257E+00 0.319E-01   -.825E-01 0.156E-01 0.104E-02
   0.140E+02 -.252E+00 -.581E-01   -.141E+02 0.248E+00 0.587E-01   0.833E-01 0.151E-01 0.119E-02
   0.140E+02 -.252E+00 -.581E-01   -.141E+02 0.248E+00 0.587E-01   0.833E-01 0.151E-01 0.119E-02
   -.140E+02 -.262E+00 -.309E-01   0.141E+02 0.257E+00 0.319E-01   -.825E-01 0.156E-01 0.104E-02
   -.143E+00 0.233E+00 0.493E-02   0.159E+00 -.260E+00 -.544E-02   -.119E-01 0.205E-01 0.460E-03
   -.234E+00 0.143E+00 -.493E-02   0.261E+00 -.159E+00 0.543E-02   -.205E-01 0.119E-01 -.460E-03
   -.234E+00 0.143E+00 -.493E-02   0.261E+00 -.159E+00 0.543E-02   -.205E-01 0.119E-01 -.460E-03
   -.143E+00 0.233E+00 0.493E-02   0.159E+00 -.260E+00 -.544E-02   -.119E-01 0.205E-01 0.460E-03
   0.127E+00 0.538E-02 0.854E+02   -.128E+00 -.430E-02 -.858E+02   0.243E-02 0.179E-03 0.300E+00
   0.113E+00 0.253E-01 0.854E+02   -.113E+00 -.233E-01 -.858E+02   0.292E-03 -.164E-02 0.299E+00
   0.113E+00 0.253E-01 0.854E+02   -.113E+00 -.233E-01 -.858E+02   0.292E-03 -.164E-02 0.299E+00
   0.127E+00 0.538E-02 0.854E+02   -.128E+00 -.430E-02 -.858E+02   0.243E-02 0.179E-03 0.300E+00
   -.238E-01 -.111E+00 -.854E+02   0.233E-01 0.113E+00 0.858E+02   0.164E-02 -.291E-03 -.299E+00
   -.390E-02 -.126E+00 -.854E+02   0.432E-02 0.128E+00 0.858E+02   -.178E-03 -.243E-02 -.300E+00
   -.390E-02 -.126E+00 -.854E+02   0.432E-02 0.128E+00 0.858E+02   -.178E-03 -.243E-02 -.300E+00
   -.238E-01 -.111E+00 -.854E+02   0.233E-01 0.113E+00 0.858E+02   0.164E-02 -.291E-03 -.299E+00
   -.128E+00 0.458E-02 -.726E+02   0.129E+00 -.395E-02 0.711E+02   0.229E-02 -.585E-03 0.136E+01
   -.113E+00 0.392E-01 -.726E+02   0.111E+00 -.393E-01 0.711E+02   0.406E-02 -.317E-03 0.136E+01
   -.113E+00 0.392E-01 -.726E+02   0.111E+00 -.393E-01 0.711E+02   0.406E-02 -.317E-03 0.136E+01
   -.128E+00 0.456E-02 -.726E+02   0.129E+00 -.395E-02 0.711E+02   0.229E-02 -.585E-03 0.136E+01
   -.368E-01 0.116E+00 0.726E+02   0.390E-01 -.112E+00 -.711E+02   0.318E-03 -.406E-02 -.136E+01
   -.222E-02 0.131E+00 0.726E+02   0.365E-02 -.130E+00 -.711E+02   0.586E-03 -.229E-02 -.136E+01
   -.224E-02 0.131E+00 0.726E+02   0.365E-02 -.130E+00 -.711E+02   0.586E-03 -.229E-02 -.136E+01
   -.368E-01 0.115E+00 0.726E+02   0.390E-01 -.112E+00 -.711E+02   0.318E-03 -.406E-02 -.136E+01
   0.122E+00 -.829E-01 -.254E-04   -.273E-13 0.909E-13 0.128E-12   -.102E+00 0.102E+00 -.266E-09

 POSITION                                       TOTAL-FORCE (eV/Angst)
      1.71264      0.47667     -0.00128        -0.011217     -0.017631     -0.002593
      5.53070      7.56051     -0.01053        -0.011072      0.014026     -0.002048
      1.71210      3.74056     -0.00397        -0.011072      0.014026     -0.002048
      5.53124      4.29661     -0.00784        -0.011217     -0.017631     -0.002593
      1.99363      0.20226      6.34389        -0.014029      0.011067      0.002048
      5.25752      0.20287      6.34120         0.017627      0.011223      0.002593
      1.43760      4.02146      6.34120         0.017627      0.011223      0.002593
     -1.82629      4.02085      6.34389        -0.014029      0.011067      0.002048
      1.71699     -1.70639      6.34647         0.002795     -0.004238      0.000021
      7.44058      0.19929     -0.00655         0.004239     -0.002794     -0.000021
      3.62066      4.01788     -0.00655         0.004239     -0.002794     -0.000021
      5.53559      2.11356      6.33991         0.002795     -0.004238      0.000021
      1.71294      2.10933      1.92102         0.001277     -0.000259     -0.020964
      5.53221      2.10998      1.91767         0.000370     -0.001249     -0.021821
      1.71229      5.92857      1.91767         0.000370     -0.001249     -0.021821
      5.53154      5.92927      1.91446         0.001277     -0.000259     -0.020964
     -0.19437      0.20131      4.42225         0.001249     -0.000370      0.021821
      3.62486      0.20200      4.41890         0.000259     -0.001277      0.020964
     -0.19506      4.02059      4.41890         0.000259     -0.001277      0.020964
      3.62423      4.02126      4.41569         0.001249     -0.000370      0.021821
     -0.19642      0.19958      2.01166         0.002912     -0.001562     -0.000939
      3.62269      0.20029      2.00835         0.002153     -0.001872     -0.001100
     -0.19723      4.01888      2.00835         0.002153     -0.001872     -0.001100
      3.62219      4.01953      2.00510         0.002912     -0.001562     -0.000939
      1.71464      2.11150      4.33158         0.001873     -0.002152      0.001100
      5.53393      2.11202      4.32826         0.001563     -0.002911      0.000939
      1.71401      5.93061      4.32826         0.001563     -0.002911      0.000939
      5.53325      5.93145      4.32502         0.001873     -0.002152      0.001100
    total drift:                               -0.002084      0.041184     -0.000025

  FREE ENERGIE OF THE ION-ELECTRON SYSTEM (eV)
  free  energy   TOTEN  =      -214.50774229 eV

  energy  without entropy=     -214.50774229  energy(sigma->0) =     -214.50774229

 writing wavefunctions

 total charge

[...]

 magnetization (x)

# of ion       s       p       d       tot
    1       -0.000   0.000   0.000  -0.000
    2       -0.000   0.000   0.000  -0.000
    3       -0.000   0.000   0.000  -0.000
    4       -0.000   0.000   0.000  -0.000
    5       -0.000   0.000   0.000  -0.000
    6       -0.000   0.000   0.000  -0.000
    7       -0.000   0.000   0.000  -0.000
    8       -0.000   0.000   0.000  -0.000
    9        0.011   0.128   0.000   0.139
   10        0.011   0.128   0.000   0.139
   11        0.011   0.128   0.000   0.139
   12        0.011   0.128   0.000   0.139
   13        0.019   0.097   0.000   0.117
   14        0.019   0.097   0.000   0.117
   15        0.019   0.097   0.000   0.117
   16        0.019   0.097   0.000   0.117
   17        0.019   0.097   0.000   0.117
   18        0.019   0.097   0.000   0.117
   19        0.019   0.097   0.000   0.117
   20        0.019   0.097   0.000   0.117
   21        0.036   0.025   3.568   3.629
   22        0.036   0.025   3.568   3.629
   23        0.036   0.025   3.568   3.629
   24        0.036   0.025   3.568   3.629
   25        0.036   0.025   3.568   3.629
   26        0.036   0.025   3.568   3.629
   27        0.036   0.025   3.568   3.629
   28        0.036   0.025   3.568   3.629
tot          0.482   1.492  28.545  30.519