 vasp.5.4.4.18Apr17-6-g9f103f2a35 (build Oct 25 2017 14:42:18) complex

 executed on             LinuxIFC date 2021.04.17  04:39:42

 INCAR:
 POTCAR:    PAW_PBE Li_sv 10Sep2004
 POTCAR:    PAW_PBE O 08Apr2002
 POTCAR:    PAW_PBE S 06Sep2000
 POTCAR:    PAW_PBE Fe_pv 02Aug2007

 POTCAR:    PAW_PBE Li_sv 10Sep2004

 POTCAR:    PAW_PBE O 08Apr2002

 POTCAR:    PAW_PBE S 06Sep2000

 POTCAR:    PAW_PBE Fe_pv 02Aug2007

  PAW_PBE Li_sv 10Sep2004               :
  PAW_PBE O 08Apr2002                   :
  PAW_PBE S 06Sep2000                   :
  PAW_PBE Fe_pv 02Aug2007               :

 POSCAR: # Compound: Li2OS2Fe2. Old comment: Fe2L
  positions in direct lattice
 exchange correlation table for  LEXCH =        8
   RHO(1)=    0.500       N(1)  =     2000
   RHO(2)=  100.500       N(2)  =     4000

 ion  position               nearest neighbor table
   1  0.448  0.052  0.000-   3 1.93   3 1.93
   2  0.948  0.552  1.000-   3 1.93   3 1.93
   3  0.948  0.052  0.000-   2 1.93   1 1.93   1 1.93   2 1.93   6 2.04   7 2.04
   4  0.598  0.702  0.300-   7 2.43   6 2.73   6 2.73   6 2.73   6 2.73
   5  0.298  0.402  0.700-   6 2.43   7 2.73   7 2.73   7 2.73   7 2.73
   6  0.108  0.212  0.320-   3 2.04   5 2.43   4 2.73   4 2.73   4 2.73   4 2.73
   7  0.788  0.892  0.680-   3 2.04   4 2.43   5 2.73   5 2.73   5 2.73   5 2.73

IMPORTANT INFORMATION: All symmetrisations will be switched off!
NOSYMM: (Re-)initialisation of all symmetry stuff for point group C_1.

 KPOINTS: # No comment

Automatic generation of k-mesh.
Space group operators:
 irot       det(A)        alpha          n_x          n_y          n_z        tau_x        tau_y        tau_z
    1     1.000000     0.000000     1.000000     0.000000     0.000000     0.000000     0.000000     0.000000

 Subroutine IBZKPT returns following result:

 Found     99 irreducible k-points:

 Following reciprocal coordinates:
            Coordinates               Weight
  0.000000  0.000000  0.000000      1.000000
  0.142857  0.000000 -0.000000      2.000000
  0.285714  0.000000 -0.000000      2.000000
  0.428571  0.000000  0.000000      2.000000
  0.000000  0.142857  0.000000      2.000000
  0.142857  0.142857 -0.000000      2.000000
  0.285714  0.142857  0.000000      2.000000
  0.428571  0.142857 -0.000000      2.000000
 -0.428571  0.142857  0.000000      2.000000
 -0.285714  0.142857  0.000000      2.000000
 -0.142857  0.142857  0.000000      2.000000
  0.000000  0.285714  0.000000      2.000000
  0.142857  0.285714  0.000000      2.000000
  0.285714  0.285714  0.000000      2.000000
  0.428571  0.285714 -0.000000      2.000000
 -0.428571  0.285714 -0.000000      2.000000
 -0.285714  0.285714 -0.000000      2.000000
 -0.142857  0.285714  0.000000      2.000000
  0.000000  0.428571  0.000000      2.000000
  0.142857  0.428571  0.000000      2.000000
  0.285714  0.428571  0.000000      2.000000
  0.428571  0.428571  0.000000      2.000000
 -0.428571  0.428571  0.000000      2.000000
 -0.285714  0.428571  0.000000      2.000000
 -0.142857  0.428571  0.000000      2.000000
  0.000000  0.000000  0.250000      2.000000
  0.142857  0.000000  0.250000      2.000000
  0.285714  0.000000  0.250000      2.000000
  0.428571  0.000000  0.250000      2.000000
 -0.428571 -0.000000  0.250000      2.000000
 -0.285714 -0.000000  0.250000      2.000000
 -0.142857  0.000000  0.250000      2.000000
  0.000000  0.142857  0.250000      2.000000
  0.142857  0.142857  0.250000      2.000000
  0.285714  0.142857  0.250000      2.000000
  0.428571  0.142857  0.250000      2.000000
 -0.428571  0.142857  0.250000      2.000000
 -0.285714  0.142857  0.250000      2.000000
 -0.142857  0.142857  0.250000      2.000000
  0.000000  0.285714  0.250000      2.000000
  0.142857  0.285714  0.250000      2.000000
  0.285714  0.285714  0.250000      2.000000
  0.428571  0.285714  0.250000      2.000000
 -0.428571  0.285714  0.250000      2.000000
 -0.285714  0.285714  0.250000      2.000000
 -0.142857  0.285714  0.250000      2.000000
  0.000000  0.428571  0.250000      2.000000
  0.142857  0.428571  0.250000      2.000000
  0.285714  0.428571  0.250000      2.000000
  0.428571  0.428571  0.250000      2.000000
 -0.428571  0.428571  0.250000      2.000000
 -0.285714  0.428571  0.250000      2.000000
 -0.142857  0.428571  0.250000      2.000000
  0.000000 -0.428571  0.250000      2.000000
  0.142857 -0.428571  0.250000      2.000000
  0.285714 -0.428571  0.250000      2.000000
  0.428571 -0.428571  0.250000      2.000000
 -0.428571 -0.428571  0.250000      2.000000
 -0.285714 -0.428571  0.250000      2.000000
 -0.142857 -0.428571  0.250000      2.000000
[...]
 -0.142857  0.142857  0.500000      2.000000
  0.000000  0.285714  0.500000      2.000000
  0.142857  0.285714  0.500000      2.000000
  0.285714  0.285714  0.500000      2.000000
  0.428571  0.285714  0.500000      2.000000
 -0.428571  0.285714  0.500000      2.000000
 -0.285714  0.285714  0.500000      2.000000
 -0.142857  0.285714  0.500000      2.000000
  0.000000  0.428571  0.500000      2.000000
  0.142857  0.428571  0.500000      2.000000
  0.285714  0.428571  0.500000      2.000000
  0.428571  0.428571  0.500000      2.000000
 -0.428571  0.428571  0.500000      2.000000
 -0.285714  0.428571  0.500000      2.000000
 -0.142857  0.428571  0.500000      2.000000

 Following cartesian coordinates:
            Coordinates               Weight
  0.000000  0.000000  0.000000      1.000000
  0.037030  0.000016  0.011165      2.000000
  0.074059  0.000031  0.022330      2.000000
  0.111089  0.000047  0.033495      2.000000
  0.000003  0.037030  0.011165      2.000000
  0.037032  0.037045  0.022330      2.000000
  0.074062  0.037061  0.033495      2.000000
  0.111092  0.037076  0.044661      2.000000
 -0.111087  0.036983 -0.022330      2.000000
 -0.074057  0.036999 -0.011165      2.000000
 -0.037027  0.037014 -0.000000      2.000000
  0.000005  0.074059  0.022330      2.000000
  0.037035  0.074075  0.033495      2.000000
  0.074065  0.074091  0.044661      2.000000
  0.111094  0.074106  0.055826      2.000000
 -0.111084  0.074013 -0.011165      2.000000
 -0.074054  0.074028 -0.000000      2.000000
 -0.037025  0.074044  0.011165      2.000000
  0.000008  0.111089  0.033495      2.000000
  0.037038  0.111105  0.044661      2.000000
  0.074067  0.111120  0.055826      2.000000
  0.111097  0.111136  0.066991      2.000000
 -0.111081  0.111042 -0.000000      2.000000
 -0.074052  0.111058  0.011165      2.000000
 -0.037022  0.111074  0.022330      2.000000
  0.000032  0.000032  0.039185      2.000000
  0.037062  0.000048  0.050350      2.000000
  0.074092  0.000063  0.061515      2.000000
  0.111122  0.000079  0.072680      2.000000
 -0.111057 -0.000014  0.005689      2.000000
 -0.074027  0.000001  0.016855      2.000000
 -0.036997  0.000017  0.028020      2.000000
  0.000035  0.037062  0.050350      2.000000
  0.037065  0.037078  0.061515      2.000000
  0.074094  0.037093  0.072680      2.000000
  0.111124  0.037109  0.083846      2.000000
 -0.111054  0.037015  0.016855      2.000000
 -0.074025  0.037031  0.028020      2.000000
 -0.036995  0.037046  0.039185      2.000000
  0.000037  0.074092  0.061515      2.000000
  0.037067  0.074107  0.072680      2.000000
  0.074097  0.074123  0.083846      2.000000
  0.111127  0.074138  0.095011      2.000000
 -0.111052  0.074045  0.028020      2.000000
 -0.074022  0.074061  0.039185      2.000000
 -0.036992  0.074076  0.050350      2.000000
  0.000040  0.111121  0.072680      2.000000
  0.037070  0.111137  0.083846      2.000000
  0.074100  0.111153  0.095011      2.000000
  0.111129  0.111168  0.106176      2.000000
 -0.111049  0.111075  0.039185      2.000000
 -0.074019  0.111090  0.050350      2.000000
 -0.036990  0.111106  0.061515      2.000000
  0.000025 -0.111057  0.005689      2.000000
  0.037054 -0.111041  0.016855      2.000000
  0.074084 -0.111026  0.028020      2.000000
  0.111114 -0.111010  0.039185      2.000000
 -0.111065 -0.111103 -0.027806      2.000000
 -0.074035 -0.111088 -0.016641      2.000000
 -0.037005 -0.111072 -0.005476      2.000000
[...]
 -0.036963  0.037079  0.078370      2.000000
  0.000070  0.074124  0.100700      2.000000
  0.037100  0.074140  0.111865      2.000000
  0.074129  0.074155  0.123030      2.000000
  0.111159  0.074171  0.134196      2.000000
 -0.111019  0.074077  0.067205      2.000000
 -0.073990  0.074093  0.078370      2.000000
 -0.036960  0.074108  0.089535      2.000000
  0.000072  0.111154  0.111865      2.000000
  0.037102  0.111169  0.123030      2.000000
  0.074132  0.111185  0.134196      2.000000
  0.111162  0.111200  0.145361      2.000000
 -0.111017  0.111107  0.078370      2.000000
 -0.073987  0.111123  0.089535      2.000000
 -0.036957  0.111138  0.100700      2.000000

 Subroutine IBZKPT_HF returns following result:

 Found    196 k-points in 1st BZ
 the following    196 k-points will be used (e.g. in the exchange kernel)
 Following reciprocal coordinates:   # in IRBZ
  0.000000  0.000000  0.000000    0.00510204   1 t-inv F
  0.142857  0.000000 -0.000000    0.00510204   2 t-inv F
  0.285714  0.000000 -0.000000    0.00510204   3 t-inv F
  0.428571  0.000000  0.000000    0.00510204   4 t-inv F
  0.000000  0.142857  0.000000    0.00510204   5 t-inv F
  0.142857  0.142857 -0.000000    0.00510204   6 t-inv F
  0.285714  0.142857  0.000000    0.00510204   7 t-inv F
  0.428571  0.142857 -0.000000    0.00510204   8 t-inv F
 -0.428571  0.142857  0.000000    0.00510204   9 t-inv F
 -0.285714  0.142857  0.000000    0.00510204  10 t-inv F
 -0.142857  0.142857  0.000000    0.00510204  11 t-inv F
  0.000000  0.285714  0.000000    0.00510204  12 t-inv F
  0.142857  0.285714  0.000000    0.00510204  13 t-inv F
  0.285714  0.285714  0.000000    0.00510204  14 t-inv F
  0.428571  0.285714 -0.000000    0.00510204  15 t-inv F
 -0.428571  0.285714 -0.000000    0.00510204  16 t-inv F
 -0.285714  0.285714 -0.000000    0.00510204  17 t-inv F
 -0.142857  0.285714  0.000000    0.00510204  18 t-inv F
  0.000000  0.428571  0.000000    0.00510204  19 t-inv F
  0.142857  0.428571  0.000000    0.00510204  20 t-inv F
  0.285714  0.428571  0.000000    0.00510204  21 t-inv F
  0.428571  0.428571  0.000000    0.00510204  22 t-inv F
 -0.428571  0.428571  0.000000    0.00510204  23 t-inv F
 -0.285714  0.428571  0.000000    0.00510204  24 t-inv F
 -0.142857  0.428571  0.000000    0.00510204  25 t-inv F
  0.000000  0.000000  0.250000    0.00510204  26 t-inv F
  0.142857  0.000000  0.250000    0.00510204  27 t-inv F
  0.285714  0.000000  0.250000    0.00510204  28 t-inv F
  0.428571  0.000000  0.250000    0.00510204  29 t-inv F
 -0.428571 -0.000000  0.250000    0.00510204  30 t-inv F
 -0.285714 -0.000000  0.250000    0.00510204  31 t-inv F
 -0.142857  0.000000  0.250000    0.00510204  32 t-inv F
  0.000000  0.142857  0.250000    0.00510204  33 t-inv F
  0.142857  0.142857  0.250000    0.00510204  34 t-inv F
  0.285714  0.142857  0.250000    0.00510204  35 t-inv F
  0.428571  0.142857  0.250000    0.00510204  36 t-inv F
 -0.428571  0.142857  0.250000    0.00510204  37 t-inv F
 -0.285714  0.142857  0.250000    0.00510204  38 t-inv F
[...]
  average eigenvalue GAMMA=   0.3846
  0.3846

[...]

 eigenvalue-minimisations  : 23520
 total energy-change (2. order) : 0.1891385E-07  (-0.3435941E-07)
 number of electron      52.0000001 magnetization       8.0000050
 augmentation part       17.8756060 magnetization       5.3147308

[...]

--------------------------------------- Iteration      1(  42)  ---------------------------------------

 eigenvalue-minimisations  : 12768
 total energy-change (2. order) :-0.6185473E-08  (-0.9641448E-09)
 number of electron      52.0000001 magnetization       8.0000050
 augmentation part       17.8756060 magnetization       5.3147308

 Free energy of the ion-electron system (eV)
  alpha Z        PSCENC =       146.62613457
  Ewald energy   TEWEN  =     -3846.39724221
  -Hartree energ DENC   =     -1930.40894788
  -exchange      EXHF   =         0.00000000
  -V(xc)+E(xc)   XCENC  =       220.58743501
  PAW double counting   =      6077.66436825    -6271.34211330
  entropy T*S    EENTRO =        -0.00268364
  eigenvalues    EBANDS =      -738.09455897
  atomic energy  EATOM  =      6306.40718950
  Solvation  Ediel_sol  =         0.00000000
  free energy    TOTEN  =       -34.96041868 eV

  energy without entropy =      -34.95773504  energy(sigma->0) =      -34.95907686

 average (electrostatic) potential at core
  the test charge radii are     0.7079  0.7215  0.9698  0.9500
  (the norm of the test charge is              1.0000)
       1 -58.5634       2 -58.5634       3 -69.3380       4 -85.6391       5 -85.6391
       6 -78.9255       7 -78.9255

 E-fermi :   5.8772     XC(G=0): -10.4730     alpha+bet :-12.4453

 spin component 1

 k-point     1 :       0.0000    0.0000    0.0000
  band No.  band energies     occupation
      1     -50.7686      1.00000
      2     -50.7672      1.00000
      3     -50.7238      1.00000
      4     -50.7224      1.00000
      5     -49.7527      1.00000
      6     -49.7498      1.00000
      7     -39.5063      1.00000
      8     -39.4547      1.00000
      9     -12.4572      1.00000
     10      -7.7552      1.00000
     11      -7.0633      1.00000
     12      -1.1791      1.00000
     13      -0.4569      1.00000
     14      -0.2696      1.00000
     15      -0.2663      1.00000
     16      -0.1366      1.00000
     17      -0.0365      1.00000
     18       0.0661      1.00000
     19       0.0929      1.00000
     20       0.5758      1.00000
     21       0.6182      1.00000
     22       1.5681      1.00000
     23       2.3476      1.00000
     24       2.3680      1.00000
     25       2.7663      1.00000
     26       2.8851      1.00000
     27       2.8913      1.00000
     28       4.0106      1.00000
     29       4.0538      1.00000
     30       4.0569      1.00000
     31       7.7434      0.00000
     32       8.8991      0.00000
     33      10.3463      0.00000
     34      11.9450      0.00000
     35      12.2782      0.00000
     36      14.0600      0.00000
     37      14.0614      0.00000
     38      14.3081      0.00000
     39      14.3165      0.00000
     40      14.8040      0.00000
     41      15.2484      0.00000
     42      16.1457      0.00000
     43      16.4197      0.00000
     44      16.7079      0.00000
     45      16.7167      0.00000
     46      16.8564      0.00000
     47      16.8649      0.00000
     48      17.8455      0.00000

[...]

 spin component 2

[...]

 k-point    99 :      -0.1429    0.4286    0.5000
  band No.  band energies     occupation
      1     -46.5032      1.00000
      2     -46.5025      1.00000
      3     -46.4868      1.00000
      4     -46.4853      1.00000
      5     -46.0681      1.00000
      6     -46.0675      1.00000
      7     -39.4852      1.00000
      8     -39.4749      1.00000
      9     -12.2066      1.00000
     10      -6.9012      1.00000
     11      -6.7539      1.00000
     12      -0.1042      1.00000
     13       0.5895      1.00000
     14       1.1170      1.00000
     15       1.7839      1.00000
     16       1.9731      1.00000
     17       2.6025      1.00000
     18       2.7043      1.00000
     19       2.9643      1.00000
     20       3.4967      1.00000
     21       5.5409      1.00000
     22       5.6612      1.00000
     23       5.9974      0.00034
     24       6.1594      0.00000
     25       7.3871      0.00000
     26       7.4906      0.00000
     27       7.8673      0.00000
     28       7.9536      0.00000
     29       8.6230      0.00000
     30       9.0749      0.00000
     31      10.3051      0.00000
     32      10.5789      0.00000
     33      10.7082      0.00000
     34      11.2599      0.00000
     35      11.9708      0.00000
     36      12.4367      0.00000
     37      13.4279      0.00000
     38      13.8054      0.00000
     39      14.4320      0.00000
     40      14.9210      0.00000
     41      16.0102      0.00000
     42      17.7248      0.00000
     43      18.3809      0.00000
     44      18.6428      0.00000
     45      19.0712      0.00000
     46      19.3853      0.00000
     47      19.8177      0.00000
     48      19.9618      0.00000

 soft charge-density along one line, spin component           1
         0         1         2         3         4         5         6         7         8         9
 total charge-density along one line

 soft charge-density along one line, spin component           2
         0         1         2         3         4         5         6         7         8         9
 total charge-density along one line

------------------------ aborting loop because EDIFF is reached ----------------------------------------

  FORCE on cell =-STRESS in cart. coord.  units (eV):
  Direction    XX          YY          ZZ          XY          YZ          ZX
  Alpha Z   146.62613   146.62613   146.62613
  Ewald   -1470.96910 -1470.97024  -904.46203    -0.00765     0.48202     0.48180
  Hartree   508.41375   508.41307   913.57903     0.46642     0.15327     0.15255
  E(xc)    -280.84003  -280.84003  -280.47158    -0.00168     0.00252     0.00253
  Local     131.10769   131.10912  -866.53589    -1.08320    -0.39778    -0.39594
  n-local    26.04225    26.04219    30.13526    -0.08893     0.01571     0.01559
  augment   286.92742   286.92778   304.55947     0.40242    -0.15394    -0.15435
  Kinetic   651.32270   651.32281   656.41291     0.34510    -0.07619    -0.07669
  Fock        0.00000     0.00000     0.00000     0.00000     0.00000     0.00000
  Total      -1.36920    -1.36917    -0.15670     0.03247     0.02560     0.02548
  in kB     -23.09066   -23.09017    -2.64265     0.54764     0.43174     0.42977

 VOLUME and BASIS-vectors are now :
  energy-cutoff  :      650.00
  volume of cell :       95.00
      direct lattice vectors                 reciprocal lattice vectors
     3.858861080  0.000688760 -0.003180970     0.259208227  0.000108884  0.078156132
    -0.000661840  3.858866610 -0.003180980     0.000018161  0.259207878  0.078156109
    -1.923839710 -1.924515360  6.383179590     0.000129182  0.000129227  0.156739633

  length of vectors
     3.858862453  3.858867978  6.939012918     0.270734737  0.270734375  0.156739739

 FORCES acting on ions
    electron-ion (+dipol)            ewald-force                    non-local-force                 convergence-correction
   0.624E-02 -.182E-02 0.576E-02   -.623E-02 0.165E-02 -.581E-02   0.167E-03 0.615E-04 0.929E-04   -.832E-05 0.634E-06 -.503E-04
   0.202E-02 -.682E-02 -.565E-02   -.184E-02 0.682E-02 0.581E-02   -.706E-04 -.113E-03 -.894E-04   0.186E-07 -.824E-05 -.504E-04
   -.719E-02 0.693E-02 0.183E-03   0.811E-02 -.796E-02 -.210E-06   -.868E-03 0.896E-03 0.147E-05   0.205E-04 0.211E-04 -.188E-03
   0.644E-01 0.665E-01 0.890E+02   -.653E-01 -.673E-01 -.899E+02   -.199E-02 -.223E-02 0.103E+01   -.707E-05 -.359E-05 0.484E-04
   -.666E-01 -.645E-01 -.890E+02   0.673E-01 0.654E-01 0.899E+02   0.225E-02 0.202E-02 -.103E+01   0.360E-05 -.962E-06 0.595E-04
   -.424E-01 -.446E-01 -.662E+02   0.467E-01 0.484E-01 0.646E+02   -.361E-02 -.317E-02 0.189E+01   -.165E-04 -.121E-04 -.205E-03
   0.449E-01 0.427E-01 0.662E+02   -.488E-01 -.471E-01 -.646E+02   0.319E-02 0.364E-02 -.189E+01   0.275E-04 0.234E-04 0.340E-03
   0.139E-02 -.158E-02 0.467E-04   -.795E-14 0.829E-14 0.114E-12   -.938E-03 0.109E-02 0.915E-05   0.198E-04 0.202E-04 -.456E-04

 POSITION                                       TOTAL-FORCE (eV/Angst)
      1.72948      0.20030     -0.00150         0.000099     -0.000041     -0.000015
      1.73466      0.20548      6.37832         0.000047     -0.000050      0.000021
      3.65889      0.20059     -0.00318         0.000000     -0.000042     -0.000005
      1.73069      2.13130      1.90875        -0.003007     -0.002965      0.071079
     -0.19633      0.20360      4.46807         0.002943      0.002995     -0.071087
     -0.19826      0.20165      2.04033         0.000661      0.000751      0.223001
      1.73264      2.13323      4.33649        -0.000745     -0.000649     -0.222995
    total drift:                                0.000469     -0.000469      0.000010

  FREE ENERGIE OF THE ION-ELECTRON SYSTEM (eV)
  free  energy   TOTEN  =       -34.96041868 eV

  energy  without entropy=      -34.95773504  energy(sigma->0) =      -34.95907686

 Linear response reoptimize wavefunctions
 Linear response G [H, r] |phi>, progress :
  Direction:   1

----------------------------------------- Iteration    1(   1)  ---------------------------------------

  free energy    TOTEN  =      -162.40709398 eV

[...]

 Linear response G [H, r] |phi>, progress :
  Direction:   2

[...]

 Linear response G [H, r] |phi>, progress :
  Direction:   3

[...]

  free energy    TOTEN  =      -223.00263977 eV

[...]

 Linear response to external field (no local field effect), progress :
  Direction:   1

[...]

 Free energy of the ion-electron system (eV)
  -Hartree energ DENC   =         0.00000000
  -V(xc)+E(xc)   XCENC  =         0.00000000
  PAW double counting   =         0.00000000        0.00000000
  entropy T*S    EENTRO =         0.00000000
  eigenvalues    EBANDS =        -1.91733975
  free energy    TOTEN  =        -1.91733975 eV

  energy without entropy =       -1.91733975

[...]

 change of polarisation eV/A/(eV/A) component  1 :    19.811     0.573    12.984
 dielectric tensor                  component  1 :    38.734     1.091    24.730

[...]

 Linear response to external field (no local field effect), progress :
  Direction:   3

[...]

 HEAD OF MICROSCOPIC STATIC DIELECTRIC TENSOR (INDEPENDENT PARTICLE, excluding Hartree and local field effects)
          38.733823     1.090811    24.677526
           1.090576    38.738872    24.395095
          24.730400    24.344063  1217.114964

 Linear response to external field, progress :
  Direction:   1

[...]

 PIEZOELECTRIC TENSOR FIELD DIRECTION 1  (e Angst)
     0.00070  0.07590  0.03274           ( -0.00008  0.00010 -0.00063)
     0.07589  0.02971  0.01940           (  0.00010  0.00042 -0.00059)
     0.03443  0.02095 -0.01958           ( -0.00063 -0.00059  0.00012)

 PIEZOELECTRIC TENSOR FIELD DIRECTION 1  (C/m^2)
     0.00012  0.01280  0.00552
     0.01280  0.00501  0.00327
     0.00581  0.00353 -0.00330

      POSITION         DIRECTION 1           BORN EFFECTIVE CHARGE    (rigid.aug.   ionic)
      1.72948      0.20030     -0.00150     0.93114 -0.00927 -0.09330 ( -0.94400  3.00000)
      1.73466      0.20548      6.37832     1.23840  0.00028 -0.12769 ( -0.94400  3.00000)
      3.65889      0.20059     -0.00318    -2.09753  0.05954  0.14117 ( -0.63701  6.00000)
      1.73069      2.13130      1.90875    -2.63939 -0.06131  0.14596 (  0.81772  6.00000)
     -0.19633      0.20360      4.46807    -2.62405 -0.04538  0.13783 (  0.81772  6.00000)
     -0.19826      0.20165      2.04033     2.67635  0.05727 -0.11948 ( -8.49302 14.00000)
      1.73264      2.13323      4.33649     2.58508  0.00622 -0.09172 ( -8.49302 14.00000)
    total drift (improves with k-points):   0.06999  0.00736 -0.00724

[...]

 Linear response to external field, progress :
  Direction:   3

[...]

----------------------------------------- Iteration    3(  42)  ---------------------------------------

 Broyden mixing:
  rms(total) = 0.71709E-04    rms(broyden)= 0.71637E-04
  rms(prec ) = 0.10356E-03
  weight for this iteration     100.00

 eigenvalues of (default mixing * dielectric matrix)
  average eigenvalue GAMMA=   2.1846
 17.6379  8.5555  6.9123  5.8041  5.0671  4.5769  4.5329  3.2077  2.5627  2.5627
  0.7791  1.9754  1.9754  1.4866  1.4866  0.1437  0.2237  1.4456  0.1443  1.0610
  1.0610  1.0772  1.0772  0.8992  0.8992  0.8748  0.8748  0.4876  0.7679  0.7679
  0.7258  0.7258  0.6686  0.6686  0.6090  0.6090  0.6433  0.6362  0.6230  0.5487

 Free energy of the ion-electron system (eV)
  -Hartree energ DENC   =        -2.50581166
  -V(xc)+E(xc)   XCENC  =         0.04349912
  PAW double counting   =         6.66554002        2.25480731
  entropy T*S    EENTRO =         0.00000000
  eigenvalues    EBANDS =      -321.47530973
  free energy    TOTEN  =      -315.01727494 eV

  energy without entropy =     -315.01727494

------------------------ aborting loop because EDIFF is reached ----------------------------------------

 change of polarisation eV/A/(eV/A) component  3 :    12.549    12.408   619.431
 dielectric tensor                  component  3 :    23.902    23.634  1180.828

 PIEZOELECTRIC TENSOR FIELD DIRECTION 3  (e Angst)
     0.29214 -0.06142 -1.12281           (  0.00050 -0.00026 -0.00168)
    -0.02956  0.16131  0.80066           ( -0.00026  0.00033  0.00094)
    -3.95531  3.60420 -0.24814           ( -0.00168  0.00094  0.00066)

 PIEZOELECTRIC TENSOR FIELD DIRECTION 3  (C/m^2)
     0.04927 -0.01036 -0.18935
    -0.00498  0.02720  0.13503
    -0.66704  0.60783 -0.04185

      POSITION         DIRECTION 3           BORN EFFECTIVE CHARGE    (rigid.aug.   ionic)
      1.72948      0.20030     -0.00150    -0.07560  0.01214  0.53834 ( -0.94400  3.00000)
      1.73466      0.20548      6.37832     0.01202 -0.07566  0.53820 ( -0.94400  3.00000)
      3.65889      0.20059     -0.00318    -0.03031 -0.03051 -3.86381 ( -0.63701  6.00000)
      1.73069      2.13130      1.90875     0.13223 -0.03460  0.13713 (  0.81772  6.00000)
     -0.19633      0.20360      4.46807    -0.11374  0.05358  0.10818 (  0.81772  6.00000)
     -0.19826      0.20165      2.04033     2.03017 -1.79933  2.53334 ( -8.49302 14.00000)
      1.73264      2.13323      4.33649    -2.02592  1.80327  2.70523 ( -8.49302 14.00000)
    total drift (improves with k-points):  -0.07114 -0.07110  2.69660

 MACROSCOPIC STATIC DIELECTRIC TENSOR (including local field effects in DFT)
          38.430753     0.993319    23.902436
           0.993205    38.435854    23.633652
          23.921041    23.548802  1180.828303

 MACROSCOPIC STATIC DIELECTRIC TENSOR (including local field effects in DFT)
          38.430753     0.993319    23.902436
           0.993205    38.435854    23.633652
          23.921041    23.548802  1180.828303

 PIEZOELECTRIC TENSOR  for field in x, y, z        (e  Angst)
          XX          YY          ZZ          XY          YZ          ZX
  x     0.00070     0.02971    -0.01958     0.07589     0.02095     0.03274
  y     0.08213     0.07036    -0.10651     0.00080    -0.06297    -0.04547
  z     0.29214     0.16131    -0.24814    -0.02956     3.60420    -1.12281

 PIEZOELECTRIC TENSOR  for field in x, y, z        (C/m^2)
          XX          YY          ZZ          XY          YZ          ZX
  x     0.00012     0.00501    -0.00330     0.01280     0.00353     0.00552
  y     0.01385     0.01187    -0.01796     0.00013    -0.01062    -0.00767
  z     0.04927     0.02720    -0.04185    -0.00498     0.60783    -0.18935

 BORN EFFECTIVE CHARGES (in e, cummulative output)
 ion    1
    1     0.92114    -0.01032    -0.09227
    2    -0.00087     1.22845    -0.12651
    3    -0.06544     0.02230     0.15311
 ion    2
    1     1.22840    -0.00077    -0.12666
    2    -0.01019     0.92120    -0.09212
    3     0.02219    -0.06550     0.15298
 ion    3
    1    -2.10753     0.05849     0.14220
    2     0.05855    -2.10748     0.14169
    3    -0.02015    -0.02035    -4.24904
 ion    4
    1    -2.64939    -0.06237     0.14700
    2    -0.02642    -2.60639     0.14606
    3     0.14240    -0.02444    -0.24810
 ion    5
    1    -2.63405    -0.04643     0.13886
    2    -0.08225    -2.67699     0.13945
    3    -0.10357     0.06373    -0.27705
 ion    6
    1     2.66635     0.05622    -0.11845
    2     0.04222     2.64463    -0.15100
    3     2.04033    -1.78917     2.14811
 ion    7
    1     2.57508     0.00516    -0.09069
    2     0.01896     2.59659    -0.05757
    3    -2.01576     1.81343     2.32000