 vasp.6.2.0 18Jan21 (build May  3 2021 10:16:23) complex
 executed on        HPECrayEX_GCC date 2021.05.05  07:16:05

 INCAR:
   ALGO = all
   EDIFF = 1e-06
   EDIFFG = -0.02
   ENCUT = 520
   GGA = pe
   IBRION = 3
   IMAGES = 5
   IOPT = 7
   ISIF = 2
   ISMEAR = 0
   ISPIN = 2
   KPAR = 8
   LASPH = .TRUE.
   LCHARG = .TRUE.
   LDAU = .TRUE.
   LDAUJ = 0.0 0.0 0.0 0.0
   LDAUL = 2 -1 -1 -1
   LDAUTYPE = 2
   LDAUU = 4.0 0.0 0.0 0.0
   LMAXMIX = 4
   LORBIT = 10
   LREAL = .FALSE.
   LVHAR = .TRUE.
   LWAVE = .TRUE.
   MAGMOM = 5 5 5 5 5 5 5 5 5 5 5 5 5 5 5 5 5 5 5 5 5 5 5 5 5 5 5 5 5 5 5 5 0.6 0.6 0.6 0.6 0.6 0.6 0.6 0.6 0.6 0.6 0.6 0.6 0.6 0.6 0.6 0.6 0.6 0.6 0.6 0.6 0.6 0.6 0.6 0.6 0.6 0.6 0.6 0.6 0.6 0.6 0.6 0.6 0.6 0.6 0.6 0.6 0.6 0.6 0.6 0.6 0.6 0.6 0.6 0.6 0.6 0.6 0.6 0.6 0.6 0.6 0.6 0.6 0.6 0.6 0.6 0.6 0.6 0.6 0.6 0.6 0.6 0.6 0.6 0.6 0.6 0.6 0.6 0.6 0.6 0.6 0.6 0.6 0.6 0.6 0.6 0.6 0.6 0.6 0.6
   NCORE = 4
   NEDOS = 2000
   NELECT = 828
   NELM = 200
   NELMIN = 4
   NSW = 60
   NWRITE = 1
   POTIM = 0.0
   PREC = accurate
   SIGMA = 0.05
   SPRING = -5

 POTCAR:    PAW_PBE Fe_pv 02Aug2007
 POTCAR:    PAW_PBE Li_sv 10Sep2004
 POTCAR:    PAW_PBE O 08Apr2002
 POTCAR:    PAW_PBE S 06Sep2000
 POTCAR:    PAW_PBE Fe_pv 02Aug2007

 POTCAR:    PAW_PBE Li_sv 10Sep2004

 POTCAR:    PAW_PBE O 08Apr2002

 POTCAR:    PAW_PBE S 06Sep2000

  PAW_PBE Fe_pv 02Aug2007               :
  PAW_PBE Li_sv 10Sep2004               :
  PAW_PBE O 08Apr2002                   :
  PAW_PBE S 06Sep2000                   :

 POSCAR: # Compound: Fe32Li31O16S32. Old comment:
  positions in direct lattice
 exchange correlation table for  LEXCH =        8
   RHO(1)=    0.500       N(1)  =     2000
   RHO(2)=  100.500       N(2)  =     4000

 VTST: version 3.2, (02/03/18)

 CHAIN: initializing optimizer

 OPT: Using FIRE optimizer
 OPT: FIRE, Init
 OPT: FIRE, MAXMOVE       0.20000
 OPT: FIRE, TIMESTEP      0.10000
 OPT: FIRE, FTIMEMAX      1.00000
 OPT: FIRE, FTIMEINC      1.10000
 OPT: FIRE, FTIMEDEC      0.50000
 OPT: FIRE, FALPHADEC     0.99000
 OPT: FIRE, FALPHA        0.10000
 OPT: FIRE, FNMIN         5

 CHAIN: Read ICHAIN            0
 CHAIN: Running the NEB
 NEB:          SPRING     -5.000000
 NEB:          LCLIMB      T
 NEB:     LTANGENTOLD      F
 NEB:           LDNEB      F
 NEB:        LDNEBORG      F
 NEB:        LNEBCELL      F
 NEB:          EFIRST      0.000000
 NEB:           ELAST      0.000000

 POSCAR: # Compound: Fe32Li31O16S32. Old comment:
  positions in direct lattice

 POSCAR: # Compound: Fe32Li31O16S32. Old comment:
  positions in direct lattice

 ion  position               nearest neighbor table
   1  0.974  0.081  0.160-  73 2.05  84 2.42  80 2.72  97 2.72  98 2.73  83 2.73
   2  0.224  0.330  0.160-  68 2.05  85 2.43  80 2.70  98 2.72  81 2.73  99 2.74
   3  0.724  0.328  0.159-  79 2.04  86 2.42  99 2.70  82 2.72  97 2.72  80 2.74
   4  0.976  0.580  0.158-  66 2.04  87 2.42  83 2.71  81 2.71  82 2.73  80 2.73
   5  0.964  0.433  0.347-  70 1.98  80 2.46  86 2.61  87 2.65
   6  0.226  0.670  0.341-  67 2.04  81 2.44  87 2.70 100 2.70  85 2.71 102 2.74
   7  0.733  0.667  0.346-  72 1.98  82 2.46  87 2.67  86 2.69
   8  0.974  0.922  0.341-  77 2.04  83 2.44  84 2.68  87 2.71 101 2.72 102 2.73
   9  0.974  0.081  0.659-  77 2.04  92 2.44  88 2.68  91 2.71 105 2.72 106 2.73
  10  0.224  0.330  0.659-  64 2.04  93 2.44 106 2.71  88 2.72  89 2.72 107 2.73
  11  0.726  0.327  0.659-  75 2.04  94 2.44 105 2.69  88 2.70  90 2.71 107 2.74
  12  0.964  0.586  0.653-  70 1.98  95 2.46  90 2.61  91 2.64
  13  0.974  0.421  0.840-  66 2.05  88 2.42  95 2.72  94 2.72  93 2.73  92 2.73
  14  0.224  0.670  0.840-  71 2.05  89 2.43  95 2.70  93 2.72 110 2.73 108 2.74
  15  0.724  0.670  0.841-  76 2.04  90 2.42 108 2.70 109 2.72  94 2.72  95 2.74
  16  0.976  0.922  0.842-  73 2.04  91 2.42  92 2.71 110 2.71 109 2.72  95 2.73
  17  0.475  0.581  0.160-  65 2.05 100 2.43  96 2.71  82 2.72  81 2.72  99 2.74
  18  0.725  0.829  0.159-  76 2.05 101 2.42  97 2.71  96 2.72  83 2.73  82 2.73
  19  0.225  0.829  0.159-  71 2.05 102 2.44  81 2.71  83 2.71  96 2.72  98 2.73
  20  0.475  0.080  0.159-  74 2.05 103 2.44  99 2.71  97 2.71  98 2.72  96 2.72
  21  0.475  0.920  0.341-  78 2.04  96 2.44 101 2.71 103 2.71 102 2.72 100 2.72
  22  0.726  0.168  0.341-  75 2.04  97 2.44 101 2.69  84 2.70  86 2.71 103 2.74
  23  0.224  0.171  0.341-  64 2.04  98 2.44 102 2.71  84 2.72  85 2.72 103 2.73
  24  0.475  0.423  0.342-  69 2.04  99 2.44  85 2.66 100 2.69  86 2.72 103 2.76
  25  0.475  0.581  0.658-  69 2.04 108 2.44  89 2.66 104 2.69  90 2.72 107 2.76
  26  0.733  0.821  0.654-  72 1.98 109 2.46  91 2.68  90 2.69
  27  0.226  0.829  0.659-  67 2.04 110 2.44  91 2.70 104 2.70  89 2.71 106 2.74
  28  0.475  0.079  0.659-  78 2.04 111 2.44 105 2.71 107 2.71 106 2.72 104 2.72
  29  0.475  0.922  0.840-  74 2.05 104 2.43 111 2.71 110 2.72 109 2.72 108 2.74
  30  0.725  0.170  0.841-  79 2.05 105 2.42  94 2.71 111 2.72  92 2.73 109 2.73
  31  0.225  0.171  0.842-  68 2.05 106 2.44 110 2.71  92 2.71 111 2.72  93 2.73
  32  0.475  0.421  0.841-  65 2.05 107 2.44 108 2.71  94 2.71 111 2.72  93 2.72
  33  0.081  0.145  0.001-  68 1.94  73 1.95  92 2.55  80 2.57
  34  0.869  0.856  0.999-  76 1.94  73 1.95  83 2.54  95 2.57
  35  0.869  0.356  0.001-  79 1.94  66 1.95  92 2.54  80 2.57
  36  0.081  0.643  0.999-  71 1.94  66 1.95  83 2.55  95 2.57
  37  0.118  0.394  0.500-  70 1.88  64 1.93  89 2.58  85 2.58
  38  0.345  0.618  0.500-  69 1.95  67 1.96  89 2.64  85 2.64
  39  0.620  0.613  0.500-  72 1.90  69 1.97  40 2.59  86 2.60  90 2.60
  40  0.605  0.375  0.500-  75 1.91  69 1.92  39 2.59  90 2.69  86 2.69
  41  0.082  0.143  0.500-  64 1.94  77 1.96  88 2.55  84 2.55
  42  0.873  0.849  0.500-  72 1.91  77 1.97  91 2.52  87 2.52
  43  0.858  0.370  0.500-  70 1.93  75 1.96  88 2.68  84 2.68
  44  0.079  0.645  0.500-  70 1.92  67 1.96  87 2.54  91 2.54
  45  0.118  0.394  0.999-  68 1.94  66 1.94  93 2.54  81 2.56
  46  0.332  0.608  0.999-  71 1.95  65 1.95  93 2.55  81 2.56
  47  0.830  0.606  0.001-  76 1.94  66 1.94  94 2.54  82 2.56
  48  0.618  0.393  0.001-  65 1.94  79 1.95  94 2.55  82 2.58
  49  0.581  0.644  1.000-  65 1.94  76 1.94 108 2.54  96 2.54
  50  0.367  0.359  0.001-  65 1.94  68 1.94  99 2.55 111 2.56
  51  0.367  0.858  0.999-  74 1.94  71 1.94 108 2.55  96 2.56
  52  0.581  0.144  0.000-  74 1.94  79 1.94  99 2.54 111 2.54
  53  0.609  0.882  0.500-  72 1.88  78 1.94 105 2.66 101 2.66
  54  0.834  0.106  0.500-  77 1.93  75 1.93 101 2.57 105 2.57
  55  0.337  0.112  0.500-  64 1.94  78 1.94 102 2.60 106 2.60
  56  0.119  0.895  0.500-  77 1.93  67 1.94 102 2.55 106 2.55
  57  0.362  0.364  0.500-  64 1.94  69 1.95 103 2.62 107 2.62
  58  0.364  0.861  0.500-  78 1.92  67 1.93 104 2.59 100 2.59
  59  0.589  0.133  0.500-  78 1.92  75 1.94 103 2.62 107 2.62
  60  0.618  0.893  0.999-  74 1.94  76 1.95  97 2.55 109 2.58
[...]
  97  0.724  0.075  0.151-  22 2.44  61 2.54  60 2.55  18 2.71  20 2.71   1 2.72   3 2.72
  98  0.225  0.076  0.152-  23 2.44  63 2.54  62 2.55   2 2.72  20 2.72  19 2.73   1 2.73
  99  0.475  0.326  0.152-  24 2.44  52 2.54  50 2.55   3 2.70  20 2.71  17 2.74   2 2.74
 100  0.474  0.674  0.348-  17 2.43  58 2.59  24 2.69   6 2.70  21 2.72
 101  0.724  0.924  0.348-  18 2.42  54 2.57  53 2.66  22 2.69  21 2.71   8 2.72
 102  0.225  0.925  0.348-  19 2.44  56 2.55  55 2.60  23 2.71  21 2.72   8 2.73   6 2.74
 103  0.475  0.173  0.349-  20 2.44  57 2.62  59 2.62  21 2.71  23 2.73  22 2.74  24 2.76
 104  0.474  0.826  0.652-  29 2.43  58 2.59  25 2.69  27 2.70  28 2.72
 105  0.724  0.077  0.652-  30 2.42  54 2.57  53 2.66  11 2.69  28 2.71   9 2.72
 106  0.225  0.077  0.652-  31 2.44  56 2.55  55 2.60  10 2.71  28 2.72   9 2.73  27 2.74
 107  0.475  0.324  0.651-  32 2.44  57 2.62  59 2.62  28 2.71  10 2.73  11 2.74  25 2.76
 108  0.475  0.674  0.848-  25 2.44  49 2.54  51 2.55  15 2.70  32 2.71  29 2.74  14 2.74
 109  0.725  0.922  0.845-  26 2.46  61 2.56  60 2.58  15 2.72  29 2.72  16 2.72  30 2.73
 110  0.225  0.925  0.848-  27 2.44  63 2.56  62 2.56  31 2.71  16 2.71  29 2.72  14 2.73
 111  0.474  0.175  0.849-  28 2.44  52 2.54  50 2.56  29 2.71  32 2.72  31 2.72  30 2.72

  LATTYP: Found a base centered orthorhombic cell.
 ALAT       =    10.8749739061
 B/A-ratio  =     2.3644048249
 C/A-ratio  =     1.0000101723

  Lattice vectors:

 A1 = (   3.8335882400,   3.8349345400, -12.8627506400)
 A2 = (   3.8548230400,   3.8561790800,  12.8500725900)
 A3 = (   7.6911861600,  -7.6885056400,   0.0000000100)

Analysis of symmetry for initial positions (statically):
 Subroutine PRICEL returns:
 Original cell was already a primitive cell.

 Routine SETGRP: Setting up the symmetry group for a
 base centered orthorhombic supercell.

 Subroutine GETGRP returns: Found  1 space group operations
 (whereof  1 operations were pure point group operations)
 out of a pool of  8 trial point group operations.

The static configuration has the point symmetry C_1 .

Analysis of symmetry for dynamics (positions and initial velocities):
 Subroutine PRICEL returns:
 Original cell was already a primitive cell.

[...]

The dynamic configuration has the point symmetry C_1 .

Analysis of structural, dynamic, and magnetic symmetry:
 Subroutine PRICEL returns:
 Original cell was already a primitive cell.

 Routine SETGRP: Setting up the symmetry group for a
 base centered orthorhombic supercell.

 Subroutine GETGRP returns: Found  1 space group operations
 (whereof  1 operations were pure point group operations)
 out of a pool of  8 trial point group operations.

The overall configuration has the point symmetry C_1 .

 Subroutine INISYM returns: Found  1 space group operations
 (whereof  1 operations are pure point group operations),
 and found     1 'primitive' translations

                                     Primitive cell

  volume of cell :    1520.4808

  direct lattice vectors                    reciprocal lattice vectors
     7.691186160 -7.688505640  0.000000010     0.065032232 -0.065009382  0.000000006
     7.688411280  7.691113620 -0.012678050     0.065042145  0.065064822  0.038783628
    -3.833588240 -3.834934540 12.862750640     0.000064108  0.000064131  0.077782096

  length of vectors
    10.875084530 10.874973906 13.958992648     0.091953308  0.099840280  0.077782149

  position of ions in fractional coordinates (direct lattice)
     0.974416447  0.080845081  0.159681798
     0.223546675  0.330219649  0.159961878
     0.723601102  0.328486405  0.158784373
     0.975922390  0.580188730  0.157851679
     0.964114843  0.432943792  0.346981941
     0.226219093  0.669876661  0.341307048
     0.732611479  0.666562822  0.345994690
     0.974163274  0.922010918  0.341162922
     0.974206861  0.080880208  0.658825546
     0.223788057  0.330128300  0.658715431
     0.726357950  0.327021343  0.658977006
     0.964095191  0.586060549  0.653016064
     0.974414876  0.421164191  0.840308431
     0.223548324  0.670244920  0.840040816
     0.723596568  0.669679059  0.841218846
     0.975902023  0.922331617  0.842145273
     0.475340684  0.581176345  0.159522581
[...]
   0.149E+02 0.592E-01 0.735E-01   -.149E+02 -.481E-01 -.108E+00   -.924E-02 -.120E-01 0.349E-01
   -.145E+02 0.269E+00 -.111E+01   0.146E+02 -.204E+00 0.106E+01   -.165E-01 -.679E-01 0.527E-01
   -.324E+00 -.136E+02 -.123E+01   0.265E+00 0.136E+02 0.122E+01   0.597E-01 -.381E-01 0.119E-01
   0.341E+00 0.132E+02 -.250E+00   -.321E+00 -.132E+02 0.260E+00   -.202E-01 0.324E-01 -.105E-01
   0.338E+00 0.132E+02 0.228E+00   -.318E+00 -.132E+02 -.239E+00   -.205E-01 0.323E-01 0.105E-01
   -.319E+00 -.136E+02 0.127E+01   0.260E+00 0.136E+02 -.126E+01   0.595E-01 -.378E-01 -.117E-01
   -.495E+01 -.321E+00 0.397E-02   0.494E+01 -.361E+00 -.323E-02   0.354E-01 0.683E+00 -.552E-03
   0.130E+02 0.235E+00 -.430E-02   -.130E+02 -.227E+00 0.431E-02   -.624E-02 -.461E-02 -.461E-04
   0.959E+01 -.728E+00 -.688E-02   -.962E+01 0.739E+00 0.672E-02   0.274E-01 -.128E-01 0.161E-03
   -.145E+02 0.533E+00 0.293E-01   0.145E+02 -.470E+00 -.295E-01   0.199E-01 -.640E-01 0.426E-03
   0.990E+00 0.729E+01 -.247E-02   -.104E+01 -.734E+01 0.234E-02   0.516E-01 0.388E-01 0.454E-03
   0.404E+00 0.128E+02 -.462E-02   -.263E+00 -.128E+02 0.472E-02   -.140E+00 0.202E-03 -.193E-03
   -.881E+00 -.815E+01 0.202E-01   0.739E+00 0.816E+01 -.204E-01   0.146E+00 0.318E-02 0.178E-03
   -.145E+02 0.258E+00 0.115E+01   0.145E+02 -.192E+00 -.109E+01   -.167E-01 -.685E-01 -.523E-01
[...]
   0.183E+00 -.181E+01 0.828E+02   -.182E+00 0.179E+01 -.833E+02   -.139E-02 0.225E-01 0.466E+00
   0.156E+01 -.480E+01 0.840E+02   -.157E+01 0.486E+01 -.845E+02   0.816E-02 -.636E-01 0.488E+00
   -.135E+02 0.122E+02 -.924E+02   0.137E+02 -.124E+02 0.929E+02   -.152E+00 0.208E+00 -.542E+00
   0.139E+02 0.118E+02 -.888E+02   -.141E+02 -.119E+02 0.893E+02   0.171E+00 0.171E+00 -.535E+00
   0.820E+00 -.682E+00 -.860E+02   -.815E+00 0.706E+00 0.864E+02   -.482E-02 -.263E-01 -.464E+00
   -.106E+01 -.435E+01 -.855E+02   0.104E+01 0.439E+01 0.860E+02   0.280E-01 -.386E-01 -.452E+00
   -.133E+02 0.123E+02 0.924E+02   0.135E+02 -.125E+02 -.929E+02   -.150E+00 0.209E+00 0.542E+00
   0.141E+02 0.121E+02 0.888E+02   -.143E+02 -.122E+02 -.893E+02   0.173E+00 0.174E+00 0.535E+00
   0.855E+00 -.584E+00 0.860E+02   -.849E+00 0.608E+00 -.865E+02   -.544E-02 -.258E-01 0.465E+00
   -.986E+00 -.417E+01 0.856E+02   0.960E+00 0.421E+01 -.860E+02   0.280E-01 -.373E-01 0.452E+00
   0.144E+01 -.493E+01 -.840E+02   -.145E+01 0.499E+01 0.845E+02   0.787E-02 -.639E-01 -.487E+00
   0.209E+00 -.453E+01 -.776E+02   -.228E+00 0.457E+01 0.780E+02   0.214E-01 -.437E-01 -.435E+00
   0.190E+01 0.196E+01 -.849E+02   -.191E+01 -.197E+01 0.853E+02   0.134E-01 0.324E-03 -.495E+00
   -.828E+00 -.205E+00 -.842E+02   0.855E+00 0.235E+00 0.847E+02   -.278E-01 -.318E-01 -.466E+00
   -.137E+01 0.327E+01 -.431E-02   -.516E-12 -.266E-12 -.796E-12   0.136E+01 -.327E+01 0.355E-02

 POSITION                                       TOTAL-FORCE (eV/Angst)
      7.50383     -7.48239      2.05292        -0.000627     -0.001331     -0.000032
      3.64498      0.20757      2.05336        -0.001143     -0.000787     -0.001170
      7.48218     -3.64591      2.03824        -0.002692     -0.002184      0.002343
     11.36159     -3.64644      2.02305         0.000302     -0.001639     -0.000489
      9.41365     -5.41344      4.45765        -0.000680     -0.001071      0.000844
      5.58175      2.10392      4.38165         0.001254     -0.002017      0.000379
      9.43306     -1.83294      4.44199        -0.002819     -0.012792      0.002642
     13.27339     -1.70691      4.37660         0.000272     -0.000372      0.000536
      5.58898     -9.39469      8.47328         0.000416     -0.000441     -0.000247
      1.73411     -1.70767      8.46871        -0.002071     -0.001059     -0.000193
      5.57458     -5.59658      8.47211        -0.000497     -0.000209     -0.001087
      9.41752     -5.40927      8.39215        -0.000605     -0.001286     -0.000459
      7.51109     -7.47510     10.80334        -0.000563     -0.001555     -0.000358
      3.65210      0.21468     10.79674        -0.001440     -0.000881      0.000896
      7.48920     -3.63882     10.81190        -0.002579     -0.002648     -0.002674
     11.36867     -3.63904     10.82061         0.000456     -0.001768      0.000179
      7.51271      0.20348      2.04453         0.000054     -0.004426      0.000424
     11.34068      0.19748      2.03549        -0.001272     -0.002907     -0.000088
      7.49607      4.04392      2.02825        -0.000076     -0.001678      0.000286
      3.65838     -3.64789      2.04635        -0.001057     -0.003079     -0.001088
      9.42012      2.11433      4.37380        -0.000746     -0.003729      0.000844
      5.57164     -5.59925      4.38450        -0.000702     -0.000097      0.001272
      1.73034     -1.71078      4.38763        -0.001788     -0.001077      0.000579
      5.59398     -1.70682      4.38770        -0.010682     -0.001162     -0.002363
      5.59703     -1.70384      8.46230        -0.010554     -0.001166      0.002442
      9.43566     -1.82994      8.40187        -0.002827     -0.013356     -0.002566
      5.58546      2.10784      8.46219         0.001361     -0.001904     -0.000396
      1.73531     -5.57326      8.47628        -0.000991     -0.003144     -0.000630
      7.51965      0.21085     10.79905         0.000079     -0.004275     -0.000499
      3.65909     -7.48673     10.81457        -0.001176     -0.003196      0.000132
     -0.18542     -3.64017     10.82187        -0.000231     -0.001792     -0.000438
      3.66524     -3.64080     10.81007        -0.001237     -0.003052      0.000918
      1.73324      0.48440      0.01665        -0.000234     -0.001418     -0.000732
      9.42916     -3.93208     12.84368        -0.000440     -0.000859     -0.001184
      9.41858     -3.94262      0.00334        -0.000439     -0.000827      0.001188
      1.74384      0.49498     12.83619        -0.000212     -0.001490      0.000508
      2.01457      0.20385      6.42685        -0.004528     -0.001288      0.000085
      5.48709      0.17905      6.42380        -0.016388      0.001699     -0.000016
      7.56758     -1.97426      6.42353        -0.020759      0.064881     -0.000260
      5.62414     -3.68347      6.42678         0.017797      0.004033      0.000068
     -0.18890     -1.44910      6.42946         0.000725      0.000130     -0.000001
     11.32124     -2.10126      6.42082         0.003857      0.005472     -0.000023
      7.52291     -5.67130      6.42700         0.003688      0.018541      0.000266
      3.64542      2.43746      6.42312        -0.000633      0.005688      0.000091
      0.10955     -1.71280     12.84878        -0.000358     -0.001212     -0.000855
      3.39706     -1.71208     12.84847         0.001182     -0.002422      0.001195
     11.04054     -1.72817      0.00073         0.001225     -0.000903      0.000398
      7.77290     -1.72844      0.00310         0.001445     -0.002607      0.000786
      5.58476     -3.35148     12.85309         0.000363     -0.001385      0.001523
      5.57876     -0.07100      0.00932         0.000062     -0.001087      0.000035
      5.58937     -0.06055     12.83813         0.000003     -0.001139     -0.000105
      5.57415     -3.36208     -0.00021         0.000352     -0.001389     -0.001503
      9.55099      0.17958      6.42035         0.025200      0.000900      0.000192
      5.31465     -7.51084      6.42987         0.012319      0.003669     -0.000036
      1.53604     -3.64025      6.42972        -0.003836     -0.001575      0.000013
      5.88082      4.04764      6.41983         0.001326     -0.000626      0.000186
      3.66607     -1.89603      6.42644        -0.001243     -0.008368      0.000337
      7.50480      1.90775      6.42048         0.000754     -0.010716     -0.000082
      3.63535     -5.42200      6.42956         0.003969      0.011380      0.000049
      7.78341     -1.71781     12.84328         0.001424     -0.002614     -0.000864
[...]
      5.56691     -5.57554      1.94272         0.001666      0.001250      0.000309
      1.73839     -1.72540      1.95139        -0.000179     -0.001089     -0.000757
      5.57927     -1.73271      1.94962        -0.001217     -0.001531     -0.002739
      7.49327      0.19999      4.47148        -0.000918     -0.002192      0.001921
     11.34249      0.21132      4.45898         0.004947      0.002384      0.001374
      7.51387      4.04845      4.46367         0.000443     -0.001619      0.001093
      3.64699     -3.65651      4.48797         0.001953      0.001434     -0.000517
      7.49652      0.20315      8.37222        -0.001235     -0.001827     -0.002008
      3.65731     -7.47656      8.39106         0.005371      0.002217     -0.001298
     -0.17136     -3.63951      8.38632         0.000191     -0.001380     -0.000405
      3.65021     -3.65327      8.36845         0.001673      0.001692      0.000675
      5.58670     -1.72532     10.90048        -0.001697     -0.001306      0.002572
      9.42524     -1.72941     10.85715         0.001730     -0.000304     -0.002039
      5.59365      2.12822     10.90078        -0.000668     -0.001274     -0.000695
      1.74037     -5.55722     10.91639         0.000041     -0.001428     -0.000862
    total drift:                               -0.003155      0.002385     -0.000763

  FREE ENERGIE OF THE ION-ELECTRON SYSTEM (eV)
  free  energy   TOTEN  =      -585.28981973 eV

  energy  without entropy=     -585.26120718  energy(sigma->0) =     -585.27551345

 NEB: the previous image is higher in energy: T
 NEB: the next image is higher in energy    : F
 NEB: only prev energy greater

 NEB: Tangent
     -0.00552     -0.00907      0.00229
     -0.01100      0.00191     -0.00959
     -0.02612     -0.01647      0.02671
      0.00411     -0.01080     -0.00037
     -0.01086      0.00929      0.00716
      0.01280     -0.02112      0.00087
     -0.04299     -0.14278      0.02289
     -0.00003     -0.00272      0.00205
      0.00004     -0.00261     -0.00217
     -0.01139     -0.00896      0.00329
     -0.00409     -0.01027     -0.00512
     -0.01035      0.00939     -0.00714
     -0.00564     -0.00936     -0.00220
     -0.01097      0.00167      0.00972
     -0.02545     -0.01729     -0.02660
      0.00404     -0.01131      0.00049
     -0.00037     -0.02994      0.01160
     -0.01260     -0.02396     -0.00053
     -0.00132     -0.00766      0.00097
     -0.00879     -0.02054     -0.01151
     -0.00844     -0.03070      0.00249
     -0.00360     -0.00950      0.00505
     -0.01145     -0.00912     -0.00322
     -0.12980     -0.01255     -0.03823
     -0.13007     -0.01307      0.03847
     -0.04360     -0.14375     -0.02268
      0.01336     -0.02075     -0.00083
     -0.00874     -0.03011     -0.00232
     -0.00089     -0.03026     -0.01182
     -0.01237     -0.02503      0.00057
     -0.00114     -0.00801     -0.00083
     -0.00928     -0.02106      0.01154
     -0.00163     -0.00225      0.00018
     -0.00231     -0.00800     -0.01699
     -0.00228     -0.00795      0.01731
     -0.00168     -0.00233     -0.00019
      0.01105     -0.01216      0.00007
     -0.11637      0.01615      0.00035
     -0.30539      0.78499     -0.00045
      0.16311      0.02863     -0.00005
      0.00293      0.02510      0.00009
      0.00454      0.01805      0.00004
      0.03204      0.13801      0.00016
      0.00923      0.02993     -0.00002
      0.00560     -0.00379     -0.00784
      0.01336     -0.01109      0.00525
      0.00324     -0.00619     -0.00555
      0.00673     -0.01615      0.01124
      0.00197     -0.00752      0.00387
      0.00020     -0.00182      0.00188
      0.00018     -0.00185     -0.00158
      0.00191     -0.00752     -0.00449
      0.22080      0.00676      0.00031
      0.04256      0.01750     -0.00046
     -0.05184     -0.01222     -0.00028
      0.02996     -0.00750     -0.00028
     -0.02681     -0.07083      0.00007
      0.01147     -0.10072     -0.00025
      0.02793      0.09043     -0.00004
      0.00645     -0.01613     -0.01174
[...]
      0.01307      0.00881      0.00872
      0.00180     -0.00894     -0.00426
     -0.00423     -0.00793     -0.02834
     -0.01677     -0.02404      0.01712
      0.02874      0.01098      0.00242
      0.00596     -0.01082     -0.00450
      0.01978      0.00893     -0.01091
     -0.01688     -0.02407     -0.01718
      0.02883      0.01099     -0.00251
      0.00590     -0.01080      0.00451
      0.01982      0.00897      0.01083
     -0.00418     -0.00779      0.02834
      0.01129     -0.00448     -0.01302
      0.00070     -0.01057     -0.00197
      0.00010     -0.01232     -0.00621

 NEB: forces: par spring, perp REAL, dneb     0.019313    0.022999    0.000000
 NEB: distance to prev, next image, angle between     0.644068    0.647930  142.149324
 NEB: projections on to tangent (spring, REAL)     0.019313    0.088169

 stress matrix after NEB project (eV)
    -11.33447     -0.14870     -0.00939
     -0.14852    -11.77875     -0.00841
     -0.00935     -0.00839    -17.15903
  FORCES: max atom, RMS     0.010836    0.002851
  FORCE total and by dimension    0.030032    0.010830
  Stress total and by dimension   23.699916   17.159028
 OPT: skip step - force has converged

 reached required accuracy - stopping structural energy minimisation
 writing wavefunctions

 total charge

[...]

 magnetization (x)

# of ion       s       p       d       tot
    1        0.041   0.030   3.569   3.639
    2        0.041   0.030   3.570   3.641
    3        0.041   0.030   3.565   3.636
    4        0.041   0.030   3.566   3.636
    5        0.043   0.032   3.546   3.620
    6        0.040   0.030   3.559   3.628
    7        0.043   0.031   3.547   3.620
    8        0.040   0.030   3.567   3.636
    9        0.040   0.030   3.567   3.636
   10        0.040   0.030   3.571   3.641
   11        0.039   0.030   3.564   3.633
   12        0.043   0.032   3.546   3.620
   13        0.041   0.030   3.569   3.639
   14        0.041   0.030   3.570   3.641
   15        0.041   0.030   3.565   3.636
   16        0.041   0.030   3.566   3.636
   17        0.041   0.030   3.569   3.640
   18        0.041   0.030   3.568   3.638
   19        0.040   0.030   3.572   3.642
   20        0.040   0.030   3.573   3.643
   21        0.040   0.030   3.572   3.641
   22        0.039   0.030   3.564   3.633
   23        0.040   0.030   3.571   3.641
   24        0.040   0.030   3.554   3.624
   25        0.039   0.030   3.554   3.624
   26        0.043   0.031   3.547   3.620
   27        0.040   0.030   3.559   3.628
   28        0.040   0.030   3.572   3.641
   29        0.041   0.030   3.569   3.640
   30        0.041   0.030   3.568   3.638
   31        0.040   0.030   3.572   3.642
   32        0.040   0.030   3.573   3.643
   33       -0.000   0.001   0.000   0.001
   34        0.000   0.001   0.000   0.001
   35        0.000   0.001   0.000   0.001
   36       -0.000   0.001   0.000   0.001
   37        0.000   0.001   0.000   0.002
   38       -0.000   0.001   0.000   0.001
   39       -0.000   0.001   0.000   0.001
   40        0.000   0.001   0.000   0.001
   41       -0.000   0.001   0.000   0.001
   42        0.000   0.001   0.000   0.001
   43       -0.000   0.001   0.000   0.001
   44       -0.000   0.001   0.000   0.001
   45        0.000   0.001   0.000   0.001
   46        0.000   0.001   0.000   0.001
   47        0.000   0.001   0.000   0.001
   48        0.000   0.001   0.000   0.001
   49        0.000   0.001   0.000   0.001
   50        0.000   0.001   0.000   0.001
   51        0.000   0.001   0.000   0.001
   52        0.000   0.001   0.000   0.001
   53        0.000   0.001   0.000   0.001
   54       -0.000   0.001   0.000   0.001
   55       -0.000   0.001   0.000   0.001
   56        0.000   0.001   0.000   0.001
   57       -0.000   0.001   0.000   0.001
   58       -0.000   0.001   0.000   0.001
   59       -0.000   0.001   0.000   0.001
   60        0.000   0.001   0.000   0.001
[...]
   97        0.016   0.063   0.000   0.079
   98        0.016   0.065   0.000   0.081
   99        0.016   0.061   0.000   0.077
  100        0.015   0.053   0.000   0.069
  101        0.015   0.059   0.000   0.074
  102        0.016   0.066   0.000   0.082
  103        0.016   0.064   0.000   0.080
  104        0.015   0.053   0.000   0.069
  105        0.015   0.059   0.000   0.074
  106        0.016   0.066   0.000   0.082
  107        0.016   0.064   0.000   0.080
  108        0.016   0.061   0.000   0.077
  109        0.015   0.054   0.000   0.069
  110        0.016   0.062   0.000   0.078
  111        0.016   0.065   0.000   0.081
tot          1.935   4.380 114.062 120.377