 vasp.5.4.4.18Apr17-6-g9f103f2a35 (build Oct 25 2017 14:42:18) complex

 executed on             LinuxIFC date 2021.04.16  15:09:11

 INCAR:
 POTCAR:    PAW_PBE Li_sv 10Sep2004
 POTCAR:    PAW_PBE O 08Apr2002
 POTCAR:    PAW_PBE S 06Sep2000
 POTCAR:    PAW_PBE Fe_pv 02Aug2007

 POTCAR:    PAW_PBE Li_sv 10Sep2004

 POTCAR:    PAW_PBE O 08Apr2002

 POTCAR:    PAW_PBE S 06Sep2000

 POTCAR:    PAW_PBE Fe_pv 02Aug2007

  PAW_PBE Li_sv 10Sep2004               :
  PAW_PBE O 08Apr2002                   :
  PAW_PBE S 06Sep2000                   :
  PAW_PBE Fe_pv 02Aug2007               :

 POSCAR: # Compound: Li4O2S2Fe2. Old comment: FeL
  positions in direct lattice
 exchange correlation table for  LEXCH =        8
   RHO(1)=    0.500       N(1)  =     2000
   RHO(2)=  100.500       N(2)  =     4000

 ion  position               nearest neighbor table
   1  0.106  0.726  0.713-   5 1.97   5 1.97   7 2.65
   2  0.106  0.226  0.287-   6 1.97   6 1.97   8 2.65
   3  0.606  0.438  0.545-   6 1.99   5 2.02   8 2.55   8 2.55
   4  0.606  0.938  0.455-   5 1.99   6 2.02   7 2.55   7 2.55
   5  0.606  0.735  0.748-   1 1.97   1 1.97   4 1.99   9 2.01   3 2.02  10 2.02
   6  0.606  0.235  0.252-   2 1.97   2 1.97   3 1.99  10 2.01   4 2.02   9 2.02
   7  0.106  0.740  0.241-   4 2.55   4 2.55  10 2.56  10 2.56   1 2.65
   8  0.106  0.240  0.759-   3 2.55   3 2.55   9 2.56   9 2.56   2 2.65
   9  0.606  0.025  0.960-   5 2.01   6 2.02   8 2.56   8 2.56
  10  0.606  0.525  0.040-   6 2.01   5 2.02   7 2.56   7 2.56

IMPORTANT INFORMATION: All symmetrisations will be switched off!
NOSYMM: (Re-)initialisation of all symmetry stuff for point group C_1.

 KPOINTS: # No comment

Automatic generation of k-mesh.
Space group operators:
 irot       det(A)        alpha          n_x          n_y          n_z        tau_x        tau_y        tau_z
    1     1.000000     0.000000     1.000000     0.000000     0.000000     0.000000     0.000000     0.000000

 Subroutine IBZKPT returns following result:

 Found     88 irreducible k-points:

 Following reciprocal coordinates:
            Coordinates               Weight
  0.000000  0.000000  0.000000      1.000000
  0.142857 -0.000000  0.000000      2.000000
  0.285714  0.000000  0.000000      2.000000
  0.428571  0.000000  0.000000      2.000000
  0.000000  0.200000  0.000000      2.000000
  0.142857  0.200000  0.000000      2.000000
  0.285714  0.200000  0.000000      2.000000
  0.428571  0.200000  0.000000      2.000000
 -0.428571  0.200000  0.000000      2.000000
 -0.285714  0.200000  0.000000      2.000000
 -0.142857  0.200000  0.000000      2.000000
  0.000000  0.400000  0.000000      2.000000
  0.142857  0.400000  0.000000      2.000000
  0.285714  0.400000  0.000000      2.000000
  0.428571  0.400000  0.000000      2.000000
 -0.428571  0.400000  0.000000      2.000000
 -0.285714  0.400000  0.000000      2.000000
 -0.142857  0.400000  0.000000      2.000000
  0.000000  0.000000  0.200000      2.000000
  0.142857 -0.000000  0.200000      2.000000
  0.285714  0.000000  0.200000      2.000000
  0.428571  0.000000  0.200000      2.000000
 -0.428571  0.000000  0.200000      2.000000
 -0.285714  0.000000  0.200000      2.000000
 -0.142857  0.000000  0.200000      2.000000
  0.000000  0.200000  0.200000      2.000000
  0.142857  0.200000  0.200000      2.000000
  0.285714  0.200000  0.200000      2.000000
  0.428571  0.200000  0.200000      2.000000
 -0.428571  0.200000  0.200000      2.000000
 -0.285714  0.200000  0.200000      2.000000
 -0.142857  0.200000  0.200000      2.000000
  0.000000  0.400000  0.200000      2.000000
  0.142857  0.400000  0.200000      2.000000
  0.285714  0.400000  0.200000      2.000000
  0.428571  0.400000  0.200000      2.000000
 -0.428571  0.400000  0.200000      2.000000
 -0.285714  0.400000  0.200000      2.000000
 -0.142857  0.400000  0.200000      2.000000
  0.000000 -0.400000  0.200000      2.000000
  0.142857 -0.400000  0.200000      2.000000
  0.285714 -0.400000  0.200000      2.000000
  0.428571 -0.400000  0.200000      2.000000
 -0.428571 -0.400000  0.200000      2.000000
 -0.285714 -0.400000  0.200000      2.000000
 -0.142857 -0.400000  0.200000      2.000000
  0.000000 -0.200000  0.200000      2.000000
  0.142857 -0.200000  0.200000      2.000000
  0.285714 -0.200000  0.200000      2.000000
  0.428571 -0.200000  0.200000      2.000000
 -0.428571 -0.200000  0.200000      2.000000
 -0.285714 -0.200000  0.200000      2.000000
 -0.142857 -0.200000  0.200000      2.000000
  0.000000  0.000000  0.400000      2.000000
  0.142857 -0.000000  0.400000      2.000000
  0.285714  0.000000  0.400000      2.000000
  0.428571  0.000000  0.400000      2.000000
 -0.428571  0.000000  0.400000      2.000000
 -0.285714  0.000000  0.400000      2.000000
 -0.142857  0.000000  0.400000      2.000000
[...]
 -0.142857  0.400000  0.400000      2.000000
  0.000000 -0.400000  0.400000      2.000000
  0.142857 -0.400000  0.400000      2.000000
  0.285714 -0.400000  0.400000      2.000000
  0.428571 -0.400000  0.400000      2.000000
 -0.428571 -0.400000  0.400000      2.000000
 -0.285714 -0.400000  0.400000      2.000000
 -0.142857 -0.400000  0.400000      2.000000
  0.000000 -0.200000  0.400000      2.000000
  0.142857 -0.200000  0.400000      2.000000
  0.285714 -0.200000  0.400000      2.000000
  0.428571 -0.200000  0.400000      2.000000
 -0.428571 -0.200000  0.400000      2.000000
 -0.285714 -0.200000  0.400000      2.000000
 -0.142857 -0.200000  0.400000      2.000000

 Following cartesian coordinates:
            Coordinates               Weight
  0.000000  0.000000  0.000000      1.000000
  0.036518 -0.000178  0.000000      2.000000
  0.073035 -0.000357  0.000000      2.000000
  0.109553 -0.000535  0.000000      2.000000
  0.000175  0.035655  0.000000      2.000000
  0.036692  0.035477  0.000000      2.000000
  0.073210  0.035298  0.000000      2.000000
  0.109727  0.035120  0.000000      2.000000
 -0.109378  0.036190  0.000000      2.000000
 -0.072861  0.036012  0.000000      2.000000
 -0.036343  0.035833  0.000000      2.000000
  0.000349  0.071310  0.000000      2.000000
  0.036867  0.071132  0.000000      2.000000
  0.073384  0.070953  0.000000      2.000000
  0.109902  0.070775  0.000000      2.000000
 -0.109204  0.071845  0.000000      2.000000
 -0.072686  0.071667  0.000000      2.000000
 -0.036169  0.071489  0.000000      2.000000
  0.000000  0.000000  0.035728      2.000000
  0.036518 -0.000178  0.035728      2.000000
  0.073035 -0.000357  0.035728      2.000000
  0.109553 -0.000535  0.035728      2.000000
 -0.109553  0.000535  0.035728      2.000000
 -0.073035  0.000357  0.035728      2.000000
 -0.036518  0.000178  0.035728      2.000000
  0.000175  0.035655  0.035728      2.000000
  0.036692  0.035477  0.035728      2.000000
  0.073210  0.035298  0.035728      2.000000
  0.109727  0.035120  0.035728      2.000000
 -0.109378  0.036190  0.035728      2.000000
 -0.072861  0.036012  0.035728      2.000000
 -0.036343  0.035833  0.035728      2.000000
  0.000349  0.071310  0.035728      2.000000
  0.036867  0.071132  0.035728      2.000000
  0.073384  0.070953  0.035728      2.000000
  0.109902  0.070775  0.035728      2.000000
 -0.109204  0.071845  0.035728      2.000000
 -0.072686  0.071667  0.035728      2.000000
 -0.036169  0.071489  0.035728      2.000000
 -0.000349 -0.071310  0.035728      2.000000
  0.036169 -0.071489  0.035728      2.000000
  0.072686 -0.071667  0.035728      2.000000
  0.109204 -0.071845  0.035728      2.000000
 -0.109902 -0.070775  0.035728      2.000000
 -0.073384 -0.070953  0.035728      2.000000
 -0.036867 -0.071132  0.035728      2.000000
 -0.000175 -0.035655  0.035728      2.000000
  0.036343 -0.035833  0.035728      2.000000
  0.072861 -0.036012  0.035728      2.000000
  0.109378 -0.036190  0.035728      2.000000
 -0.109727 -0.035120  0.035728      2.000000
 -0.073210 -0.035298  0.035728      2.000000
 -0.036692 -0.035477  0.035728      2.000000
  0.000000  0.000000  0.071457      2.000000
  0.036518 -0.000178  0.071457      2.000000
  0.073035 -0.000357  0.071457      2.000000
  0.109553 -0.000535  0.071457      2.000000
 -0.109553  0.000535  0.071457      2.000000
 -0.073035  0.000357  0.071457      2.000000
 -0.036518  0.000178  0.071457      2.000000
[...]
 -0.036169  0.071489  0.071457      2.000000
 -0.000349 -0.071310  0.071457      2.000000
  0.036169 -0.071489  0.071457      2.000000
  0.072686 -0.071667  0.071457      2.000000
  0.109204 -0.071845  0.071457      2.000000
 -0.109902 -0.070775  0.071457      2.000000
 -0.073384 -0.070953  0.071457      2.000000
 -0.036867 -0.071132  0.071457      2.000000
 -0.000175 -0.035655  0.071457      2.000000
  0.036343 -0.035833  0.071457      2.000000
  0.072861 -0.036012  0.071457      2.000000
  0.109378 -0.036190  0.071457      2.000000
 -0.109727 -0.035120  0.071457      2.000000
 -0.073210 -0.035298  0.071457      2.000000
 -0.036692 -0.035477  0.071457      2.000000

 Subroutine IBZKPT_HF returns following result:

 Found    175 k-points in 1st BZ
 the following    175 k-points will be used (e.g. in the exchange kernel)
 Following reciprocal coordinates:   # in IRBZ
  0.000000  0.000000  0.000000    0.00571429   1 t-inv F
  0.142857 -0.000000  0.000000    0.00571429   2 t-inv F
  0.285714  0.000000  0.000000    0.00571429   3 t-inv F
  0.428571  0.000000  0.000000    0.00571429   4 t-inv F
  0.000000  0.200000  0.000000    0.00571429   5 t-inv F
  0.142857  0.200000  0.000000    0.00571429   6 t-inv F
  0.285714  0.200000  0.000000    0.00571429   7 t-inv F
  0.428571  0.200000  0.000000    0.00571429   8 t-inv F
 -0.428571  0.200000  0.000000    0.00571429   9 t-inv F
 -0.285714  0.200000  0.000000    0.00571429  10 t-inv F
 -0.142857  0.200000  0.000000    0.00571429  11 t-inv F
  0.000000  0.400000  0.000000    0.00571429  12 t-inv F
  0.142857  0.400000  0.000000    0.00571429  13 t-inv F
  0.285714  0.400000  0.000000    0.00571429  14 t-inv F
  0.428571  0.400000  0.000000    0.00571429  15 t-inv F
 -0.428571  0.400000  0.000000    0.00571429  16 t-inv F
 -0.285714  0.400000  0.000000    0.00571429  17 t-inv F
 -0.142857  0.400000  0.000000    0.00571429  18 t-inv F
  0.000000  0.000000  0.200000    0.00571429  19 t-inv F
  0.142857 -0.000000  0.200000    0.00571429  20 t-inv F
  0.285714  0.000000  0.200000    0.00571429  21 t-inv F
  0.428571  0.000000  0.200000    0.00571429  22 t-inv F
 -0.428571  0.000000  0.200000    0.00571429  23 t-inv F
 -0.285714  0.000000  0.200000    0.00571429  24 t-inv F
 -0.142857  0.000000  0.200000    0.00571429  25 t-inv F
  0.000000  0.200000  0.200000    0.00571429  26 t-inv F
  0.142857  0.200000  0.200000    0.00571429  27 t-inv F
  0.285714  0.200000  0.200000    0.00571429  28 t-inv F
  0.428571  0.200000  0.200000    0.00571429  29 t-inv F
 -0.428571  0.200000  0.200000    0.00571429  30 t-inv F
 -0.285714  0.200000  0.200000    0.00571429  31 t-inv F
 -0.142857  0.200000  0.200000    0.00571429  32 t-inv F
  0.000000  0.400000  0.200000    0.00571429  33 t-inv F
  0.142857  0.400000  0.200000    0.00571429  34 t-inv F
  0.285714  0.400000  0.200000    0.00571429  35 t-inv F
[...]

 E-fermi :   4.4591     XC(G=0): -10.1825     alpha+bet :-12.6708

 spin component 1

 k-point     1 :       0.0000    0.0000    0.0000
  band No.  band energies     occupation
      1     -51.4821      1.00000
      2     -51.4508      1.00000
      3     -50.2008      1.00000
      4     -50.1955      1.00000
      5     -50.0069      1.00000
      6     -49.9741      1.00000
      7     -40.5235      1.00000
      8     -40.5048      1.00000
      9     -40.3059      1.00000
     10     -40.3036      1.00000
     11     -13.4890      1.00000
     12     -13.1976      1.00000
     13      -7.7341      1.00000
     14      -7.2336      1.00000
     15      -1.9249      1.00000
     16      -1.8863      1.00000
     17      -1.1835      1.00000
     18      -0.6978      1.00000
     19      -0.6022      1.00000
     20      -0.5059      1.00000
     21      -0.1759      1.00000
     22      -0.0023      1.00000
     23       0.1631      1.00000
     24       0.2266      1.00000
     25       0.2413      1.00000
     26       0.4864      1.00000
     27       0.5398      1.00000
     28       1.3726      1.00000
     29       2.0148      1.00000
     30       2.1522      1.00000
     31       3.4016      1.00000
     32       3.4256      1.00000
     33       3.4564      1.00000
     34       4.0612      1.00000
     35       4.1003      1.00000
     36       4.1653      1.00000
     37       7.3402      0.00000
     38       7.8131      0.00000
     39       9.2231      0.00000
     40       9.3328      0.00000
     41      10.1304      0.00000
     42      10.7391      0.00000
     43      10.7509      0.00000
     44      13.4257      0.00000
     45      13.5906      0.00000
     46      14.8827      0.00000
     47      15.0170      0.00000
     48      15.1239      0.00000

[...]

 spin component 2

[...]

 k-point    88 :      -0.1429   -0.2000    0.4000
  band No.  band energies     occupation
      1     -46.7643      1.00000
      2     -46.7321      1.00000
      3     -46.4273      1.00000
      4     -46.4221      1.00000
      5     -46.3676      1.00000
      6     -46.3364      1.00000
      7     -40.5125      1.00000
      8     -40.4979      1.00000
      9     -40.3054      1.00000
     10     -40.3038      1.00000
     11     -13.1792      1.00000
     12     -12.9792      1.00000
     13      -7.4141      1.00000
     14      -7.2380      1.00000
     15      -0.2857      1.00000
     16       0.0671      1.00000
     17       0.3770      1.00000
     18       0.6760      1.00000
     19       0.8465      1.00000
     20       1.0573      1.00000
     21       1.6512      1.00000
     22       1.8078      1.00000
     23       2.0562      1.00000
     24       2.3436      1.00000
     25       2.6236      1.00000
     26       2.9739      1.00000
     27       3.5271      1.00000
     28       3.8919      1.00000
     29       6.8037      0.00000
     30       7.1292      0.00000
     31       7.2235      0.00000
     32       7.4091      0.00000
     33       7.5678      0.00000
     34       7.9945      0.00000
     35       8.0496      0.00000
     36       8.2644      0.00000
     37       9.7705      0.00000
     38      10.1848      0.00000
     39      10.4391      0.00000
     40      10.6268      0.00000
     41      11.0132      0.00000
     42      11.6625      0.00000
     43      11.8009      0.00000
     44      12.2961      0.00000
     45      12.5723      0.00000
     46      12.8767      0.00000
     47      13.0882      0.00000
     48      13.9606      0.00000

 soft charge-density along one line, spin component           1
         0         1         2         3         4         5         6         7         8         9
 total charge-density along one line

 soft charge-density along one line, spin component           2
         0         1         2         3         4         5         6         7         8         9
 total charge-density along one line

------------------------ aborting loop because EDIFF is reached ----------------------------------------

  FORCE on cell =-STRESS in cart. coord.  units (eV):
  Direction    XX          YY          ZZ          XY          YZ          ZX
  Alpha Z   159.63921   159.63921   159.63921
  Ewald   -1645.35089  -731.41512 -1667.59339     4.46616    -0.00000    -0.00000
  Hartree   604.15300  1296.11638   515.00744     3.38168     0.00000     0.00000
  E(xc)    -339.09158  -338.76658  -338.85612     0.00158    -0.00000    -0.00000
  Local      35.57478 -1553.89795   165.61298    -7.76828    -0.00000    -0.00000
  n-local   -32.23810   -24.16134   -24.67045     0.03943    -0.00000    -0.00000
  augment   341.90346   332.49960   330.63548    -0.04550    -0.00000     0.00000
  Kinetic   875.41079   859.98634   860.22532    -0.07480     0.00000     0.00000
  Fock        0.00000     0.00000     0.00000     0.00000     0.00000     0.00000
  Total       0.00066     0.00054     0.00048     0.00028    -0.00000     0.00000
  in kB       0.00867     0.00704     0.00632     0.00368    -0.00001     0.00001

 VOLUME and BASIS-vectors are now :
  energy-cutoff  :      650.00
  volume of cell :      122.83
      direct lattice vectors                 reciprocal lattice vectors
     3.911909080 -0.019147620  0.000000000     0.255623550 -0.001248865  0.000000000
     0.027403940  5.609167450  0.000000000     0.000872604  0.178275314  0.000000000
     0.000000000  0.000000000  5.597810050     0.000000000  0.000000000  0.178641288

  length of vectors
     3.911955941  5.609234391  5.597810050     0.255626601  0.178277449  0.178641288

 FORCES acting on ions
    electron-ion (+dipol)            ewald-force                    non-local-force                 convergence-correction
   0.750E-02 0.558E+01 0.720E+02   -.834E-02 -.566E+01 -.720E+02   0.672E-03 0.861E-01 0.219E-01   -.609E-07 0.238E-06 -.781E-05
   0.750E-02 0.558E+01 -.720E+02   -.834E-02 -.566E+01 0.720E+02   0.670E-03 0.861E-01 -.219E-01   -.800E-07 0.252E-06 0.781E-05
   0.211E-01 0.427E+01 0.115E+02   -.228E-01 -.456E+01 -.114E+02   0.150E-02 0.285E+00 -.118E+00   0.869E-07 0.627E-05 -.522E-05
   0.211E-01 0.427E+01 -.115E+02   -.228E-01 -.456E+01 0.114E+02   0.150E-02 0.285E+00 0.118E+00   0.675E-07 0.614E-05 0.523E-05
   0.167E+00 0.305E+02 0.266E+03   -.176E+00 -.319E+02 -.274E+03   0.879E-02 0.140E+01 0.824E+01   -.289E-07 -.305E-04 -.126E-03
   0.167E+00 0.305E+02 -.266E+03   -.176E+00 -.319E+02 0.274E+03   0.879E-02 0.140E+01 -.824E+01   0.280E-07 -.303E-04 0.126E-03
   -.121E+00 -.245E+02 -.149E+03   0.124E+00 0.251E+02 0.150E+03   -.302E-02 -.546E+00 -.114E+01   -.617E-07 0.202E-05 -.577E-05
   -.121E+00 -.245E+02 0.149E+03   0.124E+00 0.251E+02 -.150E+03   -.302E-02 -.546E+00 0.114E+01   -.108E-06 0.211E-05 0.577E-05
   -.779E-01 -.159E+02 0.822E+02   0.831E-01 0.171E+02 -.834E+02   -.536E-02 -.114E+01 0.122E+01   0.899E-06 0.378E-04 -.384E-04
   -.779E-01 -.159E+02 -.822E+02   0.831E-01 0.171E+02 0.834E+02   -.536E-02 -.114E+01 -.122E+01   0.634E-06 0.383E-04 0.385E-04
   -.697E-02 -.161E+00 -.366E-06   0.666E-15 0.142E-13 -.284E-13   0.518E-02 0.161E+00 0.375E-06   0.138E-05 0.322E-04 0.161E-06

 POSITION                                       TOTAL-FORCE (eV/Angst)
      0.43553      4.06770      3.99103         0.000011     -0.000034     -0.000113
      0.42183      1.26312      1.60678         0.000009     -0.000034      0.000114
      2.38373      2.44499      3.05038        -0.000001      0.000051     -0.000006
      2.39743      5.24957      2.54743        -0.000001      0.000050      0.000006
      2.39183      4.11329      4.18453         0.000007     -0.000021      0.000171
      2.37813      1.30870      1.41328         0.000006     -0.000021     -0.000171
      0.43605      4.15009      1.34677         0.000002     -0.000020      0.000003
      0.42235      1.34551      4.25104         0.000002     -0.000020     -0.000003
      2.37239      0.12585      5.37429        -0.000017      0.000024      0.000003
      2.38609      2.93043      0.22352        -0.000017      0.000025     -0.000003
    total drift:                               -0.001787      0.000166      0.000000

  FREE ENERGIE OF THE ION-ELECTRON SYSTEM (eV)
  free  energy   TOTEN  =       -51.36860922 eV

  energy  without entropy=      -51.36860922  energy(sigma->0) =      -51.36860922

 Linear response reoptimize wavefunctions
 Linear response G [H, r] |phi>, progress :
  Direction:   1

----------------------------------------- Iteration    1(   1)  ---------------------------------------

  free energy    TOTEN  =      -183.26842840 eV

[...]

 Linear response G [H, r] |phi>, progress :
  Direction:   2

[...]

 Linear response G [H, r] |phi>, progress :
  Direction:   3

[...]

  free energy    TOTEN  =      -263.15733454 eV

[...]

 Linear response to external field (no local field effect), progress :
  Direction:   1

[...]

 Free energy of the ion-electron system (eV)
  -Hartree energ DENC   =         0.00000000
  -V(xc)+E(xc)   XCENC  =         0.00000000
  PAW double counting   =         0.00000000        0.00000000
  entropy T*S    EENTRO =         0.00000000
  eigenvalues    EBANDS =        -1.07434058
  free energy    TOTEN  =        -1.07434058 eV

  energy without entropy =       -1.07434058

[...]

 change of polarisation eV/A/(eV/A) component  1 :     3.292    -0.000     0.000
 dielectric tensor                  component  1 :     5.850    -0.001     0.000

[...]

 Linear response to external field (no local field effect), progress :
  Direction:   3

[...]

 HEAD OF MICROSCOPIC STATIC DIELECTRIC TENSOR (INDEPENDENT PARTICLE, excluding Hartree and local field effects)
           5.850323    -0.000699    -0.000000
          -0.000705     5.707965    -0.000020
           0.000000     0.000019     5.395864

 Linear response to external field, progress :
  Direction:   1

[...]

 PIEZOELECTRIC TENSOR FIELD DIRECTION 1  (e Angst)
    -0.00149 -0.20120 -0.00037           (  0.00093  0.06012 -0.00001)
    -0.20062  0.00611  0.00001           (  0.06012 -0.00017 -0.00000)
    -0.00037  0.00001 -0.00012           ( -0.00001 -0.00000  0.00047)

 PIEZOELECTRIC TENSOR FIELD DIRECTION 1  (C/m^2)
    -0.00019 -0.02624 -0.00005
    -0.02617  0.00080  0.00000
    -0.00005  0.00000 -0.00002

      POSITION         DIRECTION 1           BORN EFFECTIVE CHARGE    (rigid.aug.   ionic)
      0.43553      4.06770      3.99103     0.93344  0.00159 -0.00007 ( -0.95261  3.00000)
      0.42183      1.26312      1.60678     0.93342  0.00159  0.00007 ( -0.95261  3.00000)
      2.38373      2.44499      3.05038     1.29048 -0.00101 -0.00057 ( -0.95740  3.00000)
      2.39743      5.24957      2.54743     1.29048 -0.00101  0.00057 ( -0.95740  3.00000)
      2.39183      4.11329      4.18453    -1.99919 -0.00377  0.00051 ( -0.63783  6.00000)
      2.37813      1.30870      1.41328    -1.99931 -0.00377 -0.00051 ( -0.63783  6.00000)
      0.43605      4.15009      1.34677    -2.40780  0.00140 -0.00011 (  0.81598  6.00000)
      0.42235      1.34551      4.25104    -2.40787  0.00140  0.00011 (  0.81598  6.00000)
      2.37239      0.12585      5.37429     2.18103  0.00180  0.00096 ( -8.49910 14.00000)
      2.38609      2.93043      0.22352     2.18099  0.00181 -0.00096 ( -8.49910 14.00000)
    total drift (improves with k-points):  -0.00432  0.00003  0.00000

[...]

 Linear response to external field, progress :
  Direction:   3

[...]

----------------------------------------- Iteration    3(  32)  ---------------------------------------

 Broyden mixing:
  rms(total) = 0.37050E-06    rms(broyden)= 0.36994E-06
  rms(prec ) = 0.43138E-06
  weight for this iteration     100.00

 eigenvalues of (default mixing * dielectric matrix)
  average eigenvalue GAMMA=   1.8328
 16.5693  4.3510  3.4351  3.4351  2.5425  2.5425  2.2119  1.8017  1.8017  1.7420
  1.4437  1.1492  1.0185  1.0185  0.7084  0.7084  0.8322  0.7583  0.7583  0.7451
  0.6889  0.6338  0.6338  0.6187  0.5844  0.5844  0.5530  0.5530  0.2112  0.3505

 Free energy of the ion-electron system (eV)
  -Hartree energ DENC   =        -0.21848935
  -V(xc)+E(xc)   XCENC  =         0.00472326
  PAW double counting   =         0.88718865       -0.85785513
  entropy T*S    EENTRO =         0.00000000
  eigenvalues    EBANDS =        -1.28032251
  free energy    TOTEN  =        -1.46475507 eV

  energy without entropy =       -1.46475507

------------------------ aborting loop because EDIFF is reached ----------------------------------------

 change of polarisation eV/A/(eV/A) component  3 :    -0.000    -0.000     2.632
 dielectric tensor                  component  3 :    -0.000    -0.000     4.877

 PIEZOELECTRIC TENSOR FIELD DIRECTION 3  (e Angst)
    -0.00032  0.00000 -0.00055           ( -0.00001  0.00000  0.00013)
     0.00000 -0.00028 -0.08953           (  0.00000 -0.00000  0.02453)
    -0.00057 -0.08956  0.00065           (  0.00013  0.02453 -0.00002)

 PIEZOELECTRIC TENSOR FIELD DIRECTION 3  (C/m^2)
    -0.00004  0.00000 -0.00007
     0.00000 -0.00004 -0.01168
    -0.00007 -0.01168  0.00009

      POSITION         DIRECTION 3           BORN EFFECTIVE CHARGE    (rigid.aug.   ionic)
      0.43553      4.06770      3.99103    -0.00013 -0.00681  1.30532 ( -0.95261  3.00000)
      0.42183      1.26312      1.60678     0.00013  0.00665  1.30542 ( -0.95261  3.00000)
      2.38373      2.44499      3.05038    -0.00063 -0.12721  1.46976 ( -0.95740  3.00000)
      2.39743      5.24957      2.54743     0.00063  0.12715  1.46973 ( -0.95740  3.00000)
      2.39183      4.11329      4.18453    -0.00045 -0.08525 -2.41446 ( -0.63783  6.00000)
      2.37813      1.30870      1.41328     0.00045  0.08524 -2.41447 ( -0.63783  6.00000)
      0.43605      4.15009      1.34677    -0.00011 -0.01793 -1.92884 (  0.81598  6.00000)
      0.42235      1.34551      4.25104     0.00011  0.01810 -1.92924 (  0.81598  6.00000)
      2.37239      0.12585      5.37429     0.00038  0.07952  1.57096 ( -8.49910 14.00000)
      2.38609      2.93043      0.22352    -0.00038 -0.07956  1.57105 ( -8.49910 14.00000)
    total drift (improves with k-points):   0.00000 -0.00011  0.00523

 MACROSCOPIC STATIC DIELECTRIC TENSOR (including local field effects in DFT)
           5.595145    -0.000568    -0.000000
          -0.000579     5.479414    -0.000015
           0.000000     0.000026     4.877036

 MACROSCOPIC STATIC DIELECTRIC TENSOR (including local field effects in DFT)
           5.595145    -0.000568    -0.000000
          -0.000579     5.479414    -0.000015
           0.000000     0.000026     4.877036

 PIEZOELECTRIC TENSOR  for field in x, y, z        (e  Angst)
          XX          YY          ZZ          XY          YZ          ZX
  x    -0.00149     0.00611    -0.00012    -0.20062     0.00001    -0.00037
  y     0.02888     0.87923    -0.01099     0.00510     0.00003     0.00000
  z    -0.00032    -0.00028     0.00065     0.00000    -0.08956    -0.00055

 PIEZOELECTRIC TENSOR  for field in x, y, z        (C/m^2)
          XX          YY          ZZ          XY          YZ          ZX
  x    -0.00019     0.00080    -0.00002    -0.02617     0.00000    -0.00005
  y     0.00377     0.11468    -0.00143     0.00067     0.00000     0.00000
  z    -0.00004    -0.00004     0.00009     0.00000    -0.01168    -0.00007

 BORN EFFECTIVE CHARGES (in e, cummulative output)
 ion    1
    1     0.93387     0.00159    -0.00007
    2     0.00157     1.25921    -0.01293
    3    -0.00013    -0.00680     1.30479
 ion    2
    1     0.93386     0.00159     0.00007
    2     0.00157     1.25919     0.01293
    3     0.00013     0.00666     1.30490
 ion    3
    1     1.29092    -0.00101    -0.00057
    2    -0.00101     1.08234    -0.11327
    3    -0.00063    -0.12720     1.46924
 ion    4
    1     1.29091    -0.00101     0.00057
    2    -0.00101     1.08231     0.11327
    3     0.00063     0.12716     1.46921
 ion    5
    1    -1.99876    -0.00378     0.00051
    2    -0.00378    -2.77019     0.10957
    3    -0.00045    -0.08524    -2.41499
 ion    6
    1    -1.99887    -0.00378    -0.00051
    2    -0.00378    -2.77027    -0.10952
    3     0.00045     0.08525    -2.41499
 ion    7
    1    -2.40737     0.00140    -0.00011
    2     0.00140    -2.12412    -0.02638
    3    -0.00011    -0.01792    -1.92936
 ion    8
    1    -2.40744     0.00140     0.00011
    2     0.00140    -2.12402     0.02629
    3     0.00011     0.01811    -1.92977
 ion    9
    1     2.18146     0.00180     0.00096
    2     0.00183     2.55275     0.19606
    3     0.00038     0.07953     1.57043
 ion   10
    1     2.18142     0.00180    -0.00096
    2     0.00183     2.55281    -0.19602
    3    -0.00038    -0.07955     1.57053