 vasp.6.2.0 18Jan21 (build Jan 29 2021 15:03:46) complex

 executed on             LinuxIFC date 2021.02.26  05:10:59

 INCAR:
   AEXX = 0.25
   ALGO = all
   EDIFF = 1e-05
   EDIFFG = -0.03
   ENCUT = 520
   GGA = pe
   HFSCREEN = 0.207
   IBRION = 2
   ISIF = 3
   ISMEAR = 0
   ISPIN = 2
   KPAR = 21
   LASPH = .TRUE.
   LHFCALC = .TRUE.
   LMAXFOCK = 4
   LORBIT = 11
   LREAL = .FALSE.
   LVHAR = .TRUE.
   LWAVE = .TRUE.
   MAGMOM = 0.6 0.6 0.6 0.6 5 5 0.6 0.6 0.6 0.6
   NCORE = 1
   NEDOS = 2000
   NELM = 200
   NELMIN = 4
   NSW = 60
   NWRITE = 1
   PREC = accurate
   PRECFOCK = fast
   SIGMA = 0.05
   TIME = 0.3

 POTCAR:    PAW_PBE Li_sv 10Sep2004
 POTCAR:    PAW_PBE Fe_pv 02Aug2007
 POTCAR:    PAW_PBE S 06Sep2000
 POTCAR:    PAW_PBE O 08Apr2002
|           W    W    AA    RRRRR   N    N  II  N    N   GGGG   !!!           |
|           W    W   A  A   R    R  NN   N  II  NN   N  G    G  !!!           |
|           W    W  A    A  R    R  N N  N  II  N N  N  G       !!!           |
|           W WW W  AAAAAA  RRRRR   N  N N  II  N  N N  G  GGG   !            |
|           WW  WW  A    A  R   R   N   NN  II  N   NN  G    G                |
|           W    W  A    A  R    R  N    N  II  N    N   GGGG   !!!           |
|     For optimal performance we recommend to set                             |
|       NCORE = 2 up to number-of-cores-per-socket                            |
|     This setting can greatly improve the performance of VASP for DFT.       |
|     The default, NCORE=1 might be grossly inefficient on modern             |
|     multi-core architectures or massively parallel machines. Do your        |
|     Unfortunately you need to use the default for GW and RPA                |
|     calculations (for HF NCORE is supported but not extensively tested      |
|     yet).                                                                   |

 POTCAR:    PAW_PBE Li_sv 10Sep2004

 POTCAR:    PAW_PBE Fe_pv 02Aug2007

 POTCAR:    PAW_PBE S 06Sep2000

 POTCAR:    PAW_PBE O 08Apr2002

  PAW_PBE Li_sv 10Sep2004               :
  PAW_PBE Fe_pv 02Aug2007               :
  PAW_PBE S 06Sep2000                   :
  PAW_PBE O 08Apr2002                   :

 POSCAR: # Compound: Li4Fe2S2O2. Old comment: Fe2
  positions in direct lattice
 exchange correlation table for  LEXCH =        8
   RHO(1)=    0.500       N(1)  =     2000
   RHO(2)=  100.500       N(2)  =     4000

 ion  position               nearest neighbor table
   1  0.106  0.727  0.714-   9 1.95   9 1.96   7 2.62
   2  0.106  0.227  0.286-  10 1.95  10 1.96   8 2.62
   3  0.607  0.437  0.546-  10 1.98   9 2.00   8 2.52   8 2.53
   4  0.607  0.937  0.454-   9 1.98  10 2.00   7 2.52   7 2.53
   5  0.606  0.026  0.958-   9 1.98  10 1.99   8 2.53   8 2.53
   6  0.606  0.526  0.042-  10 1.98   9 1.99   7 2.53   7 2.53
   7  0.106  0.739  0.241-   4 2.52   6 2.53   6 2.53   4 2.53   1 2.62
   8  0.106  0.239  0.759-   3 2.52   5 2.53   5 2.53   3 2.53   2 2.62
   9  0.606  0.735  0.750-   1 1.95   1 1.96   5 1.98   4 1.98   6 1.99   3 2.00
  10  0.606  0.235  0.250-   2 1.95   2 1.96   6 1.98   3 1.98   5 1.99   4 2.00

  LATTYP: Found a simple orthorhombic cell.
 ALAT       =     3.8876648366
 B/A-ratio  =     1.4248079536
 C/A-ratio  =     1.4264442486

  Lattice vectors:

 A1 = (  -3.8876181400,   0.0190546400,   0.0000000000)
 A2 = (   0.0000000000,   0.0000000000,   5.5391757800)
 A3 = (   0.0271694700,   5.5454705900,   0.0000000000)

Analysis of symmetry for initial positions (statically):
 Subroutine PRICEL returns:
 Original cell was already a primitive cell.

 Routine SETGRP: Setting up the symmetry group for a
 simple orthorhombic supercell.

 Subroutine GETGRP returns: Found  2 space group operations
 (whereof  1 operations were pure point group operations)
 out of a pool of  8 trial point group operations.

The static configuration has the point symmetry C_1 .
 The point group associated with its full space group is C_1h.

Analysis of symmetry for dynamics (positions and initial velocities):
 Subroutine PRICEL returns:
 Original cell was already a primitive cell.

[...]

The dynamic configuration has the point symmetry C_1 .
 The point group associated with its full space group is C_1h.

Analysis of structural, dynamic, and magnetic symmetry:
 Subroutine PRICEL returns:
 Original cell was already a primitive cell.

 Routine SETGRP: Setting up the symmetry group for a
 simple orthorhombic supercell.

 Subroutine GETGRP returns: Found  2 space group operations
 (whereof  1 operations were pure point group operations)
 out of a pool of  8 trial point group operations.

The overall configuration has the point symmetry C_1 .
 The point group associated with its full space group is C_1h.

 Subroutine INISYM returns: Found  2 space group operations
 (whereof  1 operations are pure point group operations),
 and found     1 'primitive' translations

                                     Primitive cell

  volume of cell :     119.4201

  direct lattice vectors                    reciprocal lattice vectors
     3.887618140 -0.019054640  0.000000000     0.257220733 -0.001260227  0.000000000
     0.027169470  5.545470590  0.000000000     0.000883829  0.180323017  0.000000000
     0.000000000  0.000000000  5.539175780     0.000000000  0.000000000  0.180532274

  length of vectors
     3.887664837  5.545537147  5.539175780     0.257223820  0.180325183  0.180532274

  position of ions in fractional coordinates (direct lattice)
     0.106496980  0.726625000  0.714114260
     0.106496980  0.226625000  0.285885740
     0.607491130  0.436580830  0.545944510
     0.607491130  0.936580830  0.454055490
     0.605517840  0.026182750  0.958122490
     0.605517840  0.526182750  0.041877510
     0.105733980  0.739061270  0.240606740
     0.105733980  0.239061270  0.759393260
     0.606131070  0.735192150  0.750011500
     0.606131070  0.235192150  0.249988500

  ion indices of the primitive-cell ions
   primitive index   ion index
                 1           1
                 2           2
                 3           3
                 4           4
                 5           5
                 6           6
                 7           7
                 8           8
                 9           9
                10          10

 KPOINTS: # No comment

Automatic generation of k-mesh.
 Grid dimensions read from file:
 generate k-points for:    6    4    4

 Generating k-lattice:

  Cartesian coordinates                     Fractional coordinates (reciprocal lattice)
     0.042870122 -0.000210038  0.000000000     0.166666667  0.000000000  0.000000000
     0.000220957  0.045080754  0.000000000    -0.000000000  0.250000000  0.000000000
     0.000000000  0.000000000  0.045133069     0.000000000  0.000000000  0.250000000

  Length of vectors
     0.042870637  0.045081296  0.045133069

  Shift w.r.t. Gamma in fractional coordinates (k-lattice)
     0.000000000  0.000000000  0.000000000

 Subroutine IBZKPT returns following result:

 Found     42 irreducible k-points:

 Following reciprocal coordinates:
            Coordinates               Weight
  0.000000  0.000000  0.000000      1.000000
  0.166667  0.000000  0.000000      2.000000
  0.333333  0.000000  0.000000      2.000000
  0.500000  0.000000  0.000000      1.000000
  0.000000  0.250000  0.000000      2.000000
  0.166667  0.250000  0.000000      2.000000
  0.166667 -0.250000  0.000000      2.000000
  0.333333  0.250000  0.000000      2.000000
  0.333333 -0.250000  0.000000      2.000000
  0.500000  0.250000  0.000000      2.000000
  0.000000  0.500000  0.000000      1.000000
  0.166667  0.500000  0.000000      2.000000
  0.333333  0.500000  0.000000      2.000000
  0.500000  0.500000  0.000000      1.000000
  0.000000  0.000000  0.250000      2.000000
  0.166667  0.000000  0.250000      4.000000
  0.333333  0.000000  0.250000      4.000000
  0.500000  0.000000  0.250000      2.000000
  0.000000  0.250000  0.250000      4.000000
  0.166667  0.250000  0.250000      4.000000
  0.166667 -0.250000 -0.250000      4.000000
  0.333333  0.250000  0.250000      4.000000
  0.333333 -0.250000 -0.250000      4.000000
  0.500000  0.250000  0.250000      4.000000
  0.000000  0.500000  0.250000      2.000000
  0.166667  0.500000  0.250000      4.000000
  0.333333  0.500000  0.250000      4.000000
  0.500000  0.500000  0.250000      2.000000
  0.000000  0.000000  0.500000      1.000000
  0.166667  0.000000  0.500000      2.000000
  0.333333  0.000000  0.500000      2.000000
  0.500000  0.000000  0.500000      1.000000
  0.000000  0.250000  0.500000      2.000000
  0.166667  0.250000  0.500000      2.000000
  0.166667 -0.250000  0.500000      2.000000
  0.333333  0.250000  0.500000      2.000000
  0.333333 -0.250000  0.500000      2.000000
  0.500000  0.250000  0.500000      2.000000
  0.000000  0.500000  0.500000      1.000000
  0.166667  0.500000  0.500000      2.000000
  0.333333  0.500000  0.500000      2.000000
  0.500000  0.500000  0.500000      1.000000

 Following cartesian coordinates:
            Coordinates               Weight
  0.000000  0.000000  0.000000      1.000000
  0.042870 -0.000210  0.000000      2.000000
  0.085740 -0.000420  0.000000      2.000000
  0.128610 -0.000630  0.000000      1.000000
  0.000221  0.045081  0.000000      2.000000
  0.043091  0.044871  0.000000      2.000000
  0.042649 -0.045291  0.000000      2.000000
  0.085961  0.044661  0.000000      2.000000
  0.085519 -0.045501  0.000000      2.000000
  0.128831  0.044451  0.000000      2.000000
  0.000442  0.090162  0.000000      1.000000
  0.043312  0.089951  0.000000      2.000000
  0.086182  0.089741  0.000000      2.000000
  0.129052  0.089531  0.000000      1.000000
  0.000000  0.000000  0.045133      2.000000
  0.042870 -0.000210  0.045133      4.000000
  0.085740 -0.000420  0.045133      4.000000
  0.128610 -0.000630  0.045133      2.000000
  0.000221  0.045081  0.045133      4.000000
  0.043091  0.044871  0.045133      4.000000
  0.042649 -0.045291 -0.045133      4.000000
  0.085961  0.044661  0.045133      4.000000
  0.085519 -0.045501 -0.045133      4.000000
  0.128831  0.044451  0.045133      4.000000
  0.000442  0.090162  0.045133      2.000000
  0.043312  0.089951  0.045133      4.000000
  0.086182  0.089741  0.045133      4.000000
  0.129052  0.089531  0.045133      2.000000
  0.000000  0.000000  0.090266      1.000000
  0.042870 -0.000210  0.090266      2.000000
  0.085740 -0.000420  0.090266      2.000000
  0.128610 -0.000630  0.090266      1.000000
  0.000221  0.045081  0.090266      2.000000
  0.043091  0.044871  0.090266      2.000000
  0.042649 -0.045291  0.090266      2.000000
  0.085961  0.044661  0.090266      2.000000
  0.085519 -0.045501  0.090266      2.000000
  0.128831  0.044451  0.090266      2.000000
  0.000442  0.090162  0.090266      1.000000
  0.043312  0.089951  0.090266      2.000000
  0.086182  0.089741  0.090266      2.000000
  0.129052  0.089531  0.090266      1.000000

 Subroutine IBZKPT_HF returns following result:

 Found     96 k-points in 1st BZ
 the following     96 k-points will be used (e.g. in the exchange kernel)
 Following reciprocal coordinates:   # in IRBZ
[...]
 k-point   7 :   0.1667-0.2500 0.0000  plane waves:    3227
 k-point   8 :   0.3333 0.2500 0.0000  plane waves:    3213
 k-point   9 :   0.3333-0.2500 0.0000  plane waves:    3213
 k-point  10 :   0.5000 0.2500 0.0000  plane waves:    3224
 k-point  11 :   0.0000 0.5000 0.0000  plane waves:    3212
 k-point  12 :   0.1667 0.5000 0.0000  plane waves:    3210
 k-point  13 :   0.3333 0.5000 0.0000  plane waves:    3220
 k-point  14 :   0.5000 0.5000 0.0000  plane waves:    3204
 k-point  15 :   0.0000 0.0000 0.2500  plane waves:    3231
 k-point  16 :   0.1667 0.0000 0.2500  plane waves:    3223
 k-point  17 :   0.3333 0.0000 0.2500  plane waves:    3213
 k-point  18 :   0.5000 0.0000 0.2500  plane waves:    3224
 k-point  19 :   0.0000 0.2500 0.2500  plane waves:    3211
 k-point  20 :   0.1667 0.2500 0.2500  plane waves:    3211
 k-point  21 :   0.1667-0.2500-0.2500  plane waves:    3211
 k-point  22 :   0.3333 0.2500 0.2500  plane waves:    3225
 k-point  23 :   0.3333-0.2500-0.2500  plane waves:    3225
 k-point  24 :   0.5000 0.2500 0.2500  plane waves:    3216
 k-point  25 :   0.0000 0.5000 0.2500  plane waves:    3196
 k-point  26 :   0.1667 0.5000 0.2500  plane waves:    3200
 k-point  27 :   0.3333 0.5000 0.2500  plane waves:    3220
 k-point  28 :   0.5000 0.5000 0.2500  plane waves:    3220
 k-point  29 :   0.0000 0.0000 0.5000  plane waves:    3212
 k-point  30 :   0.1667 0.0000 0.5000  plane waves:    3210
 k-point  31 :   0.3333 0.0000 0.5000  plane waves:    3220
 k-point  32 :   0.5000 0.0000 0.5000  plane waves:    3204
 k-point  33 :   0.0000 0.2500 0.5000  plane waves:    3200
 k-point  34 :   0.1667 0.2500 0.5000  plane waves:    3202
 k-point  35 :   0.1667-0.2500 0.5000  plane waves:    3202
 k-point  36 :   0.3333 0.2500 0.5000  plane waves:    3222
 k-point  37 :   0.3333-0.2500 0.5000  plane waves:    3222
 k-point  38 :   0.5000 0.2500 0.5000  plane waves:    3220
 k-point  39 :   0.0000 0.5000 0.5000  plane waves:    3244
 k-point  40 :   0.1667 0.5000 0.5000  plane waves:    3216
 k-point  41 :   0.3333 0.5000 0.5000  plane waves:    3208
 k-point  42 :   0.5000 0.5000 0.5000  plane waves:    3240

 maximum and minimum number of plane-waves per node :      3244     3196

 maximum number of plane-waves:      3244
 maximum index in each direction:
   IXMAX=    7   IYMAX=   10   IZMAX=   10
   IXMIN=   -7   IYMIN=  -10   IZMIN=  -10

 serial   3D FFT for wavefunctions
 parallel 3D FFT for charge:
    minimum data exchange during FFTs selected (reduces bandwidth)

 FFT grid for exact exchange (Hartree Fock)
  NGX = 16; NGY = 24; NGZ = 24

 Radii for the augmentation spheres in the non-local exchange
 for species   1 augmentation radius   0.956 (default was   0.708)
       energy cutoff for augmentation   2080.0
 for species   2 augmentation radius   1.283 (default was   0.950)
       energy cutoff for augmentation   2080.0
 for species   3 augmentation radius   1.309 (default was   0.970)
       energy cutoff for augmentation   2080.0
 for species   4 augmentation radius   0.974 (default was   0.722)
       energy cutoff for augmentation   2080.0
 Maximum index for augmentation-charges in exchange          724
  SETUP_FOCK is finished

 Broyden mixing: mesh for mixing (old mesh)
   NGX = 15   NGY = 21   NGZ = 21
  (NGX  = 60   NGY  = 84   NGZ  = 84)
  gives a total of   6615 points

 charge density for first step will be calculated from the start-wavefunctions

 Maximum index for augmentation-charges         1705 (set IRDMAX)

 initial charge from wavefunction
 First call to EWALD:  gamma=   0.360
 Maximum number of real-space cells 3x 2x 2
 Maximum number of reciprocal cells 2x 3x 3

--------------------------------------- Iteration      1(   1)  ---------------------------------------

 eigenvalue-minimisations  :     0
 total energy-change (2. order) :-0.3960324E+01  (-0.2923495E+02)
 number of electron      63.9999981 magnetization       7.9999996
 augmentation part       20.8038684 magnetization       5.3562416

 Free energy of the ion-electron system (eV)
  alpha Z        PSCENC =       164.20171471
  Ewald energy   TEWEN  =     -4073.82791039
  -Hartree energ DENC   =     -2390.86034157
  -exchange      EXHF   =       181.98978062
  -V(xc)+E(xc)   XCENC  =       209.34278419
  PAW double counting   =     12577.60845433   -12794.62309368
  entropy T*S    EENTRO =        -0.00000000
  eigenvalues    EBANDS =     -1000.77997991
  atomic energy  EATOM  =      7122.98826804
  free energy    TOTEN  =        -3.96032365 eV

  energy without entropy =       -3.96032365  energy(sigma->0) =       -3.96032365
  exchange ACFDT corr.  =        -0.00000000  see jH, gK, PRB 81, 115126

[...]

--------------------------------------- Iteration      1(  24)  ---------------------------------------

 eigenvalue-minimisations  :     0
 total energy-change (2. order) :-0.6673449E-05  (-0.4016489E-05)
 number of electron      63.9999981 magnetization       7.9999996
 augmentation part       20.4976751 magnetization       5.3408624

 Free energy of the ion-electron system (eV)
  alpha Z        PSCENC =       164.20171471
  Ewald energy   TEWEN  =     -4073.82791039
  -Hartree energ DENC   =     -2405.06567726
  -exchange      EXHF   =       187.57848826
  -V(xc)+E(xc)   XCENC  =       209.84365527
  PAW double counting   =      7224.42833510    -7439.67539278
  entropy T*S    EENTRO =        -0.00000000
  eigenvalues    EBANDS =     -1061.34024305
  atomic energy  EATOM  =      7122.98826804
  free energy    TOTEN  =       -70.86900429 eV

  energy without entropy =      -70.86900429  energy(sigma->0) =      -70.86900429
  exchange ACFDT corr.  =        -0.00000000  see jH, gK, PRB 81, 115126

  average scaling for gradient   0.7888

 average (electrostatic) potential at core
  the test charge radii are     0.7079  0.9500  0.9698  0.7215
  (the norm of the test charge is              1.0000)
       1 -53.5176       2 -53.5176       3 -53.7377       4 -53.7377       5 -71.6036
       6 -71.6036       7 -82.2314       8 -82.2314       9 -63.7914      10 -63.7914

 E-fermi :   4.2112     XC(G=0):  -8.5079     alpha+bet :-13.0329

 Fermi energy:         4.2111956395

 spin component 1

 k-point     1 :       0.0000    0.0000    0.0000
  band No.  band energies     occupation
      1     -56.2193      1.00000
      2     -56.1810      1.00000
      3     -54.8976      1.00000
      4     -54.8914      1.00000
      5     -54.6681      1.00000
      6     -54.6299      1.00000
      7     -43.9708      1.00000
      8     -43.9489      1.00000
      9     -43.7336      1.00000
     10     -43.7314      1.00000
     11     -16.1001      1.00000
     12     -15.8109      1.00000
     13      -9.4904      1.00000
     14      -8.9165      1.00000
     15      -2.9349      1.00000
     16      -2.9165      1.00000
     17      -2.0411      1.00000
     18      -1.4862      1.00000
     19      -1.2307      1.00000
     20      -1.2181      1.00000
     21      -0.9881      1.00000
     22      -0.9140      1.00000
     23      -0.7879      1.00000
     24      -0.6039      1.00000
     25      -0.4248      1.00000
     26      -0.2160      1.00000
     27       0.0660      1.00000
     28       0.8813      1.00000
     29       1.3413      1.00000
     30       1.6476      1.00000
     31       2.8238      1.00000
     32       2.8357      1.00000
     33       2.8770      1.00000
     34       3.6283      1.00000
     35       3.6876      1.00000
     36       3.8604      1.00000
     37       8.2962      0.00000
     38       8.4077      0.00000
     39       9.9696      0.00000
     40      10.1511      0.00000
     41      10.8762      0.00000
     42      11.4526      0.00000
     43      11.4719      0.00000
     44      14.7861      0.00000
     45      14.8145      0.00000

[...]

 k-point    42 :       0.5000    0.5000    0.5000
  band No.  band energies     occupation
      1     -56.2000      1.00000
      2     -56.2000      1.00000
      3     -54.8953      1.00000
      4     -54.8953      1.00000
      5     -54.6491      1.00000
      6     -54.6491      1.00000
      7     -43.9574      1.00000
      8     -43.9574      1.00000
      9     -43.7336      1.00000
     10     -43.7335      1.00000
     11     -15.9984      1.00000
     12     -15.9984      1.00000
     13      -8.9526      1.00000
     14      -8.9526      1.00000
     15      -2.5369      1.00000
     16      -2.5369      1.00000
     17      -2.1689      1.00000
     18      -2.1689      1.00000
     19      -1.7250      1.00000
     20      -1.7250      1.00000
     21      -1.3275      1.00000
     22      -1.3275      1.00000
     23      -0.4178      1.00000
     24      -0.4178      1.00000
     25       0.3163      1.00000
     26       0.3163      1.00000
     27       0.8401      1.00000
     28       0.8401      1.00000
     29       1.0212      1.00000
     30       1.0212      1.00000
     31       2.1532      1.00000
     32       2.1532      1.00000
     33       3.3646      1.00000
     34       3.3646      1.00000
     35       3.4316      1.00000
     36       3.4316      1.00000
     37       8.7261      0.00000
     38       8.7261      0.00000
     39       9.1035      0.00000
     40       9.1035      0.00000
     41      11.9053      0.00000
     42      11.9053      0.00000
     43      12.1074      0.00000
     44      12.1074      0.00000
     45      15.0843      0.00000
 Fermi energy:         4.2111956395

 spin component 2

[...]

 k-point    42 :       0.5000    0.5000    0.5000
  band No.  band energies     occupation
      1     -49.6422      1.00000
      2     -49.6422      1.00000
      3     -49.6348      1.00000
      4     -49.6348      1.00000
      5     -49.5900      1.00000
      6     -49.5900      1.00000
      7     -43.9462      1.00000
      8     -43.9462      1.00000
      9     -43.7354      1.00000
     10     -43.7353      1.00000
     11     -15.6181      1.00000
     12     -15.6181      1.00000
     13      -8.6787      1.00000
     14      -8.6786      1.00000
     15      -1.8200      1.00000
     16      -1.8200      1.00000
     17      -1.1016      1.00000
     18      -1.1016      1.00000
     19      -0.1102      1.00000
     20      -0.1102      1.00000
     21       0.9339      1.00000
     22       0.9339      1.00000
     23       2.2526      1.00000
     24       2.2526      1.00000
     25       2.7996      1.00000
     26       2.7996      1.00000
     27       3.6691      1.00000
     28       3.6691      1.00000
     29       7.1651      0.00000
     30       7.1651      0.00000
     31       7.6390      0.00000
     32       7.6390      0.00000
     33       8.5410      0.00000
     34       8.5410      0.00000
     35       8.5840      0.00000
     36       8.5840      0.00000
     37       9.8850      0.00000
     38       9.8850      0.00000
     39      10.3081      0.00000
     40      10.3081      0.00000
     41      12.7092      0.00000
     42      12.7092      0.00000
     43      13.1189      0.00000
     44      13.1191      0.00000
     45      15.6547      0.00000

 soft charge-density along one line, spin component           1
         0         1         2         3         4         5         6         7         8         9
 total charge-density along one line

 soft charge-density along one line, spin component           2
         0         1         2         3         4         5         6         7         8         9
 total charge-density along one line

------------------------ aborting loop because EDIFF is reached ----------------------------------------

 total charge

# of ion       s       p       d       tot
    1        2.021   0.064   0.000   2.085
    2        2.021   0.064   0.000   2.085
    3        2.019   0.062   0.000   2.081
    4        2.019   0.062   0.000   2.081
    5        0.260   6.260   5.932  12.452
    6        0.260   6.260   5.932  12.452
    7        1.307   2.461   0.000   3.768
    8        1.307   2.461   0.000   3.768
    9        1.553   3.537   0.000   5.091
   10        1.553   3.537   0.000   5.091
tot         14.320  24.770  11.864  50.954

 magnetization (x)

[...]

  FORCE on cell =-STRESS in cart. coord.  units (eV):
  Direction    XX          YY          ZZ          XY          YZ          ZX
  Alpha Z   164.20171   164.20171   164.20171
  Ewald   -1661.90227  -724.94338 -1686.98694     4.01700    -0.00000     0.00000
  Hartree   596.32708  1303.12542   505.61872     3.18509    -0.00001     0.00001
  E(xc)    -256.63925  -256.38792  -256.44353     0.00087    -0.00000     0.00000
  Local      55.89972 -1571.96394   188.75147    -7.12323     0.00000     0.00004
  n-local   149.01594   153.56923   152.25336     0.01373    -0.19519    -0.07236
  augment   308.40588   299.20548   297.98667    -0.05026    -0.00000     0.00001
  Kinetic   875.81258   860.59558   861.46186    -0.07879    -0.70573    -0.81066
  Fock     -231.08814  -227.38463  -226.81156     0.01858    -0.00824    -0.00079
  Total       0.03324     0.01755     0.03177    -0.01700     0.00000     0.00000
  in kB       0.44597     0.23546     0.42619    -0.22810     0.00000     0.00000

 VOLUME and BASIS-vectors are now :
  energy-cutoff  :      520.00
  volume of cell :      119.42
      direct lattice vectors                 reciprocal lattice vectors
     3.887618140 -0.019054640  0.000000000     0.257220733 -0.001260227  0.000000000
     0.027169470  5.545470590  0.000000000     0.000883829  0.180323017  0.000000000
     0.000000000  0.000000000  5.539175780     0.000000000  0.000000000  0.180532274

  length of vectors
     3.887664837  5.545537147  5.539175780     0.257223820  0.180325183  0.180532274

 FORCES acting on ions:
    Electron-Ion                     Ewald-Force                    Non-Local-Force
   0.366E+00 0.622E+01 0.738E+02   -.346E+00 -.633E+01 -.738E+02   -.201E-01 0.952E-01 0.108E-01
   0.366E+00 0.622E+01 -.738E+02   -.346E+00 -.633E+01 0.738E+02   -.201E-01 0.952E-01 -.108E-01
   -.523E-01 0.433E+01 0.120E+02   0.600E-01 -.464E+01 -.118E+02   -.146E-01 0.322E+00 -.154E+00
   -.523E-01 0.433E+01 -.120E+02   0.600E-01 -.464E+01 0.118E+02   -.146E-01 0.322E+00 0.154E+00
   0.229E+00 -.173E+02 0.881E+02   -.199E+00 0.185E+02 -.893E+02   -.175E-01 -.111E+01 0.113E+01
   0.229E+00 -.173E+02 -.881E+02   -.199E+00 0.185E+02 0.893E+02   -.175E-01 -.111E+01 -.113E+01
   -.249E+00 -.270E+02 -.153E+03   0.244E+00 0.276E+02 0.154E+03   0.110E-01 -.601E+00 -.112E+01
   -.249E+00 -.270E+02 0.153E+03   0.244E+00 0.276E+02 -.154E+03   0.110E-01 -.601E+00 0.112E+01
   -.216E+00 0.336E+02 0.274E+03   0.242E+00 -.352E+02 -.283E+03   -.210E-01 0.141E+01 0.791E+01
   -.216E+00 0.336E+02 -.274E+03   0.242E+00 -.352E+02 0.283E+03   -.210E-01 0.141E+01 -.791E+01
   0.155E+00 -.314E+00 0.201E-04   0.192E-14 -.213E-13 -.114E-12   -.124E+00 0.220E+00 0.000E+00

 POSITION                                       TOTAL-FORCE (eV/Angst)
      0.43376      4.02745      3.95560         0.001776     -0.008376     -0.005716
      0.42018      1.25471      1.58357         0.001776     -0.008376      0.005716
      2.37356      2.40947      3.02408        -0.005016      0.015436     -0.007269
      2.38714      5.18221      2.51509        -0.005016      0.015436      0.007269
      2.35473      0.13366      5.30721         0.003836      0.012031     -0.013909
      2.36832      2.90639      0.23197         0.003836      0.012031      0.013909
      0.43113      4.09643      1.33276         0.000846     -0.017618      0.009720
      0.41755      1.32369      4.20641         0.000846     -0.017618     -0.009720
      2.37638      4.06544      4.15445        -0.001442     -0.001473      0.021799
      2.36280      1.29270      1.38473        -0.001442     -0.001473     -0.021799
    total drift:                                0.055902     -0.005093      0.000020

  FREE ENERGIE OF THE ION-ELECTRON SYSTEM (eV)
  free  energy   TOTEN  =       -70.86900429 eV

  energy  without entropy=      -70.86900429  energy(sigma->0) =      -70.86900429

 reached required accuracy - stopping structural energy minimisation
 writing wavefunctions

 total charge

[...]

 magnetization (x)

# of ion       s       p       d       tot
    1       -0.000  -0.000   0.000  -0.000
    2       -0.000  -0.000   0.000  -0.000
    3        0.001   0.003   0.000   0.004
    4        0.001   0.003   0.000   0.004
    5        0.029   0.022   3.538   3.589
    6        0.029   0.022   3.538   3.589
    7        0.016   0.092   0.000   0.108
    8        0.016   0.092   0.000   0.108
    9        0.008   0.118   0.000   0.126
   10        0.008   0.118   0.000   0.126
tot          0.108   0.472   7.076   7.656