 vasp.6.2.0 18Jan21 (build Jan 29 2021 15:03:46) complex

 executed on             LinuxIFC date 2021.03.12  09:56:22

 INCAR:
   AEXX = 0.25
   ALGO = all
   EDIFF = 7e-06
   EDIFFG = -0.03
   ENCUT = 520
   GGA = pe
   HFSCREEN = 0.207
   IBRION = 2
   ISIF = 3
   ISMEAR = 0
   ISPIN = 2
   KPAR = 30
   LASPH = .TRUE.
   LHFCALC = .TRUE.
   LMAXFOCK = 4
   LORBIT = 11
   LREAL = .FALSE.
   LVHAR = .TRUE.
   LWAVE = .TRUE.
   MAGMOM = 0.6 0.6 0.6 0.6 0.6 5 5
   NCORE = 1
   NEDOS = 2000
   NELM = 200
   NELMIN = 4
   NSW = 60
   NWRITE = 1
   PREC = accurate
   PRECFOCK = fast
   SIGMA = 0.05
   TIME = 0.3

 POTCAR:    PAW_PBE Li_sv 10Sep2004
 POTCAR:    PAW_PBE O 08Apr2002
 POTCAR:    PAW_PBE S 06Sep2000
 POTCAR:    PAW_PBE Fe_pv 02Aug2007
|           W    W    AA    RRRRR   N    N  II  N    N   GGGG   !!!           |
|           W    W   A  A   R    R  NN   N  II  NN   N  G    G  !!!           |
|           W    W  A    A  R    R  N N  N  II  N N  N  G       !!!           |
|           W WW W  AAAAAA  RRRRR   N  N N  II  N  N N  G  GGG   !            |
|           WW  WW  A    A  R   R   N   NN  II  N   NN  G    G                |
|           W    W  A    A  R    R  N    N  II  N    N   GGGG   !!!           |
|     For optimal performance we recommend to set                             |
|       NCORE = 2 up to number-of-cores-per-socket                            |
|     This setting can greatly improve the performance of VASP for DFT.       |
|     The default, NCORE=1 might be grossly inefficient on modern             |
|     multi-core architectures or massively parallel machines. Do your        |
|     Unfortunately you need to use the default for GW and RPA                |
|     calculations (for HF NCORE is supported but not extensively tested      |
|     yet).                                                                   |

 POTCAR:    PAW_PBE Li_sv 10Sep2004

 POTCAR:    PAW_PBE O 08Apr2002

 POTCAR:    PAW_PBE S 06Sep2000

 POTCAR:    PAW_PBE Fe_pv 02Aug2007

  PAW_PBE Li_sv 10Sep2004               :
  PAW_PBE O 08Apr2002                   :
  PAW_PBE S 06Sep2000                   :
  PAW_PBE Fe_pv 02Aug2007               :

 POSCAR: # Compound: Li2OS2Fe2. Old comment: Fe2L
  positions in direct lattice
 exchange correlation table for  LEXCH =        8
   RHO(1)=    0.500       N(1)  =     2000
   RHO(2)=  100.500       N(2)  =     4000

 ion  position               nearest neighbor table
   1  0.055  0.393  1.000-   3 1.91   3 1.92   4 2.69   5 2.69   4 2.69   5 2.70
   2  0.552  0.393  0.000-   3 1.91   3 1.92   5 2.69   4 2.69   5 2.69   4 2.70
   3  0.053  0.895  0.000-   2 1.91   1 1.91   1 1.92   2 1.92   7 2.01   6 2.01
   4  0.704  0.892  0.700-   7 2.40   6 2.68   1 2.69   2 2.69   1 2.69   6 2.70   2 2.70   6 2.73
                             6 2.75
   5  0.404  0.892  0.300-   6 2.40   7 2.68   2 2.69   1 2.69   2 2.69   7 2.70   1 2.70   7 2.73
                             7 2.75
   6  0.204  0.905  0.681-   3 2.01   5 2.40   4 2.68   4 2.70   4 2.73   4 2.75
   7  0.891  0.905  0.319-   3 2.01   4 2.40   5 2.68   5 2.70   5 2.73   5 2.75

  LATTYP: Found a base centered monoclinic cell.
 ALAT       =     5.4177613385
 B/A-ratio  =     1.0004047154
 C/A-ratio  =     1.2652416260
 COS(beta)  =    -0.3937045386

  Lattice vectors:

 A1 = (  -2.7088816400,   2.7099769500,   0.0039598500)
 A2 = (  -2.7088739100,  -2.7099770400,   0.0039598500)
 A3 = (   2.7079650600,   0.0000004500,   6.2972132900)

Analysis of symmetry for initial positions (statically):
 Subroutine PRICEL returns:
 Original cell was already a primitive cell.

 Routine SETGRP: Setting up the symmetry group for a
 base centered monoclinic supercell.

 Subroutine GETGRP returns: Found  2 space group operations
 (whereof  2 operations were pure point group operations)
 out of a pool of  4 trial point group operations.

The static configuration has the point symmetry C_2 .

Analysis of symmetry for dynamics (positions and initial velocities):
 Subroutine PRICEL returns:
 Original cell was already a primitive cell.

[...]

The dynamic configuration has the point symmetry C_2 .

Analysis of structural, dynamic, and magnetic symmetry:
 Subroutine PRICEL returns:
 Original cell was already a primitive cell.

 Routine SETGRP: Setting up the symmetry group for a
 base centered monoclinic supercell.

 Subroutine GETGRP returns: Found  2 space group operations
 (whereof  2 operations were pure point group operations)
 out of a pool of  4 trial point group operations.

The overall configuration has the point symmetry C_2 .

 Subroutine INISYM returns: Found  2 space group operations
 (whereof  2 operations are pure point group operations),
 and found     1 'primitive' translations

                                     Primitive cell

  volume of cell :      92.5138

  direct lattice vectors                    reciprocal lattice vectors
     5.417755550  0.000000090 -0.007919700     0.184462327 -0.184503148 -0.079323572
     2.708873910  2.709977040 -0.003959850    -0.000000006  0.369006823 -0.000000024
     2.707965060  0.000000450  6.297213290     0.000231989  0.000000000  0.158700640

  length of vectors
     5.417761339  3.831708379  6.854777165     0.272690284  0.369006823  0.158700810

  position of ions in fractional coordinates (direct lattice)
     0.055486640  0.392784210  0.999663090
     0.551729150  0.392784210  0.000336910
     0.052554140  0.894892730  0.000000000
     0.703645650  0.892324600  0.699782280
     0.404029750  0.892324600  0.300217720
     0.203964350  0.904728330  0.681327870
     0.891307310  0.904728330  0.318672130

  ion indices of the primitive-cell ions
   primitive index   ion index
                 1           1
                 2           2
                 3           3
                 4           4
                 5           5
                 6           6
                 7           7

 KPOINTS: # No comment

Automatic generation of k-mesh.
 Grid dimensions read from file:
 generate k-points for:    6    8    4

 Generating k-lattice:

  Cartesian coordinates                     Fractional coordinates (reciprocal lattice)
     0.030743721 -0.030750525 -0.013220595     0.166666667 -0.000000000 -0.000000000
    -0.000000001  0.046125853 -0.000000003     0.000000000  0.125000000  0.000000000
     0.000057997  0.000000000  0.039675160     0.000000000  0.000000000  0.250000000

  Length of vectors
     0.045448381  0.046125853  0.039675202

  Shift w.r.t. Gamma in fractional coordinates (k-lattice)
     0.000000000  0.000000000  0.000000000

 WARNING: IBZKPT: internal override: KBLOWUP is changed to .FALSE.
      ... skipping the blow-up phase ...

 Subroutine IBZKPT returns following result:

 Found     90 irreducible k-points:

 Following reciprocal coordinates:
            Coordinates               Weight
  0.000000  0.000000  0.000000      1.000000
  0.166667  0.000000 -0.000000      2.000000
  0.333333  0.000000 -0.000000      2.000000
  0.500000  0.000000  0.000000      2.000000
  0.000000  0.125000 -0.000000      2.000000
  0.166667  0.125000  0.000000      2.000000
  0.333333  0.125000  0.000000      2.000000
  0.500000  0.125000 -0.000000      4.000000
 -0.333333  0.125000 -0.000000      2.000000
 -0.166667  0.125000 -0.000000      2.000000
 -0.000000  0.250000  0.000000      2.000000
  0.166667  0.250000 -0.000000      2.000000
  0.333333  0.250000 -0.000000      2.000000
  0.500000  0.250000 -0.000000      2.000000
 -0.333333  0.250000  0.000000      2.000000
 -0.166667  0.250000  0.000000      2.000000
 -0.000000  0.375000 -0.000000      2.000000
  0.166667  0.375000  0.000000      2.000000
  0.333333  0.375000  0.000000      2.000000
 -0.333333  0.375000 -0.000000      2.000000
 -0.166667  0.375000  0.000000      2.000000
 -0.000000  0.500000  0.000000      1.000000
  0.166667  0.500000 -0.000000      2.000000
  0.333333  0.500000  0.000000      2.000000
 -0.000000 -0.000000  0.250000      2.000000
  0.166667  0.000000  0.250000      2.000000
  0.333333  0.000000  0.250000      2.000000
  0.500000  0.000000  0.250000      4.000000
 -0.333333 -0.000000  0.250000      2.000000
 -0.166667 -0.000000  0.250000      2.000000
 -0.000000  0.125000  0.250000      4.000000
  0.166667  0.125000  0.250000      2.000000
  0.333333  0.125000  0.250000      2.000000
  0.500000  0.125000  0.250000      4.000000
 -0.333333  0.125000  0.250000      2.000000
 -0.166667  0.125000  0.250000      2.000000
 -0.000000  0.250000  0.250000      4.000000
  0.166667  0.250000  0.250000      2.000000
  0.333333  0.250000  0.250000      2.000000
  0.500000  0.250000  0.250000      2.000000
 -0.333333  0.250000  0.250000      2.000000
 -0.166667  0.250000  0.250000      2.000000
 -0.000000  0.375000  0.250000      4.000000
  0.166667  0.375000  0.250000      2.000000
  0.333333  0.375000  0.250000      2.000000
 -0.333333  0.375000  0.250000      2.000000
 -0.166667  0.375000  0.250000      2.000000
 -0.000000  0.500000  0.250000      2.000000
  0.166667  0.500000  0.250000      2.000000
  0.333333  0.500000  0.250000      2.000000
 -0.333333  0.500000  0.250000      2.000000
 -0.166667  0.500000  0.250000      2.000000
  0.166667 -0.375000  0.250000      2.000000
  0.333333 -0.375000  0.250000      2.000000
  0.500000 -0.375000  0.250000      4.000000
 -0.333333 -0.375000  0.250000      2.000000
 -0.166667 -0.375000  0.250000      2.000000
  0.166667 -0.250000  0.250000      2.000000
  0.333333 -0.250000  0.250000      2.000000
  0.500000 -0.250000  0.250000      2.000000
[...]
 -0.166667  0.125000  0.500000      2.000000
 -0.000000  0.250000  0.500000      2.000000
  0.166667  0.250000  0.500000      2.000000
  0.333333  0.250000  0.500000      2.000000
  0.500000  0.250000  0.500000      2.000000
 -0.333333  0.250000  0.500000      2.000000
 -0.166667  0.250000  0.500000      2.000000
 -0.000000  0.375000  0.500000      2.000000
  0.166667  0.375000  0.500000      2.000000
  0.333333  0.375000  0.500000      2.000000
 -0.333333  0.375000  0.500000      2.000000
 -0.166667  0.375000  0.500000      2.000000
 -0.000000  0.500000  0.500000      1.000000
  0.166667  0.500000  0.500000      2.000000
  0.333333  0.500000  0.500000      2.000000

 Following cartesian coordinates:
            Coordinates               Weight
  0.000000  0.000000  0.000000      1.000000
  0.030744 -0.030751 -0.013221      2.000000
  0.061487 -0.061501 -0.026441      2.000000
  0.092231 -0.092252 -0.039662      2.000000
 -0.000000  0.046126 -0.000000      2.000000
  0.030744  0.015375 -0.013221      2.000000
  0.061487 -0.015375 -0.026441      2.000000
  0.092231 -0.046126 -0.039662      4.000000
 -0.061487  0.107627  0.026441      2.000000
 -0.030744  0.076876  0.013221      2.000000
 -0.000000  0.092252 -0.000000      2.000000
  0.030744  0.061501 -0.013221      2.000000
  0.061487  0.030751 -0.026441      2.000000
  0.092231  0.000000 -0.039662      2.000000
 -0.061487  0.153753  0.026441      2.000000
 -0.030744  0.123002  0.013221      2.000000
 -0.000000  0.138378 -0.000000      2.000000
  0.030744  0.107627 -0.013221      2.000000
  0.061487  0.076877 -0.026441      2.000000
[...]
  PAW double counting   =      6476.02540173    -6660.85219283
  entropy T*S    EENTRO =        -0.00000000
  eigenvalues    EBANDS =      -828.03394636
  atomic energy  EATOM  =      6288.01542772
  free energy    TOTEN  =       -53.62410507 eV

  energy without entropy =      -53.62410507  energy(sigma->0) =      -53.62410507
  exchange ACFDT corr.  =        -0.00000000  see jH, gK, PRB 81, 115126

  average scaling for gradient   0.9899

 average (electrostatic) potential at core
  the test charge radii are     0.7079  0.7215  0.9698  0.9500
  (the norm of the test charge is              1.0000)
       1 -52.8136       2 -52.8135       3 -63.0940       4 -81.7884       5 -81.7884
       6 -71.1792       7 -71.1792

 E-fermi :   5.0668     XC(G=0):  -8.7292     alpha+bet :-12.7802

 Fermi energy:         5.0667687310

 spin component 1

 k-point     1 :       0.0000    0.0000    0.0000
  band No.  band energies     occupation
      1     -55.8563      1.00000
      2     -55.8536      1.00000
      3     -54.3076      1.00000
      4     -54.3075      1.00000
      5     -54.3050      1.00000
      6     -54.3049      1.00000
      7     -43.0691      1.00000
      8     -43.0106      1.00000
      9     -15.3090      1.00000
     10      -9.5356      1.00000
     11      -8.6911      1.00000
     12      -2.5159      1.00000
     13      -1.2224      1.00000
     14      -1.2223      1.00000
     15      -1.0018      1.00000
     16      -0.4289      1.00000
     17      -0.4279      1.00000
     18       0.1087      1.00000
     19       0.2785      1.00000
     20       0.8254      1.00000
     21       0.8346      1.00000
     22       1.1428      1.00000
     23       1.2550      1.00000
     24       1.2551      1.00000
     25       2.0111      1.00000
     26       2.3394      1.00000
     27       2.3397      1.00000
     28       3.3363      1.00000
     29       3.5826      1.00000
     30       3.5832      1.00000
     31       8.7849      0.00000
     32       9.9377      0.00000
     33      11.5515      0.00000
     34      13.0758      0.00000
     35      13.1542      0.00000
     36      14.9604      0.00000
     37      14.9676      0.00000
     38      15.3543      0.00000
     39      15.4085      0.00000
     40      15.8851      0.00000

[...]

 k-point    90 :       0.3333    0.5000    0.5000
  band No.  band energies     occupation
      1     -55.8550      1.00000
      2     -55.8547      1.00000
      3     -54.3086      1.00000
      4     -54.3072      1.00000
      5     -54.3066      1.00000
      6     -54.3052      1.00000
      7     -43.0395      1.00000
      8     -43.0380      1.00000
      9     -15.3769      1.00000
     10      -8.7477      1.00000
     11      -8.5683      1.00000
     12      -2.3888      1.00000
     13      -1.5612      1.00000
     14      -1.3667      1.00000
     15      -1.1085      1.00000
     16      -1.0027      1.00000
     17      -0.6878      1.00000
     18      -0.5523      1.00000
     19      -0.3996      1.00000
     20       0.0048      1.00000
     21       0.6410      1.00000
     22       1.2028      1.00000
     23       1.3693      1.00000
     24       1.5151      1.00000
     25       1.7073      1.00000
     26       1.8314      1.00000
     27       3.4637      1.00000
     28       3.6531      1.00000
     29       3.7618      1.00000
     30       4.2244      1.00000
     31      10.4788      0.00000
     32      10.7069      0.00000
     33      10.9366      0.00000
     34      11.3514      0.00000
     35      12.3281      0.00000
     36      12.8442      0.00000
     37      14.1962      0.00000
     38      14.6989      0.00000
     39      15.1306      0.00000
     40      16.0176      0.00000
 Fermi energy:         5.0667687310

[...]

 soft charge-density along one line, spin component           1
         0         1         2         3         4         5         6         7         8         9
 total charge-density along one line

[...]

------------------------ aborting loop because EDIFF is reached ----------------------------------------

 total charge

# of ion       s       p       d       tot
    1        2.025   0.073   0.000   2.098
    2        2.025   0.073   0.000   2.098
    3        1.553   3.555   0.000   5.108
    4        1.310   2.464   0.000   3.774
    5        1.310   2.464   0.000   3.774
    6        0.237   6.217   5.901  12.354
    7        0.237   6.217   5.901  12.354
tot          8.697  21.062  11.802  41.561

 magnetization (x)

[...]

  FORCE on cell =-STRESS in cart. coord.  units (eV):
  Direction    XX          YY          ZZ          XY          YZ          ZX
  Alpha Z   150.57232   150.57232   150.57232
  Ewald   -1490.72275 -1490.92939  -895.12999     0.00056     0.00001     6.05317
  Hartree   517.90870   517.70445   885.01727     0.00077     0.00003     4.94244
  E(xc)    -212.90635  -212.90659  -212.47400     0.00001    -0.00001     0.00292
  Local     115.44737   115.87631  -801.14478    -0.00082    -0.00011   -10.64495
  n-local   221.27579   221.28507   224.76695     0.31946    -0.02956    -0.04938
  augment   271.08040   271.06961   243.71169     0.00096    -0.00009    -0.27932
  Kinetic   666.40128   666.38223   631.80856     0.22718    -0.02036    -0.11600
  Fock     -239.04803  -239.04660  -227.13746     0.08406     0.00215     0.11135
  Total       0.00874     0.00740    -0.00943    -0.00000    -0.00000     0.02021
  in kB       0.15144     0.12811    -0.16331    -0.00000    -0.00000     0.35003

 VOLUME and BASIS-vectors are now :
  energy-cutoff  :      520.00
  volume of cell :       92.51
      direct lattice vectors                 reciprocal lattice vectors
     5.417755550  0.000000090 -0.007919700     0.184462327 -0.184503148 -0.079323572
     2.708873910  2.709977040 -0.003959850    -0.000000006  0.369006823 -0.000000024
     2.707965060  0.000000450  6.297213290     0.000231989  0.000000000  0.158700640

[...]

 FORCES acting on ions:
    Electron-Ion                     Ewald-Force                    Non-Local-Force
   -.140E+01 0.366E+00 -.985E-01   0.142E+01 -.335E+00 0.998E-01   -.244E-01 -.289E-01 0.163E-02
   0.140E+01 0.367E+00 0.985E-01   -.142E+01 -.336E+00 -.998E-01   0.244E-01 -.289E-01 -.163E-02
   -.791E-03 0.394E+01 0.228E-04   0.136E-03 -.405E+01 -.130E-04   -.143E-06 0.100E+00 -.237E-19
   0.330E+01 -.432E+01 -.898E+02   -.335E+01 0.437E+01 0.902E+02   0.515E-01 -.407E-01 -.329E+00
   -.330E+01 -.432E+01 0.898E+02   0.335E+01 0.437E+01 -.902E+02   -.515E-01 -.407E-01 0.329E+00
   -.281E+01 0.239E+01 0.749E+02   0.270E+01 -.201E+01 -.736E+02   0.127E+00 -.357E+00 -.114E+01
   0.282E+01 0.239E+01 -.749E+02   -.270E+01 -.201E+01 0.736E+02   -.127E+00 -.357E+00 0.114E+01
   -.767E-03 0.802E+00 0.962E-04   -.755E-14 -.355E-14 -.426E-13   0.107E-05 -.753E+00 0.000E+00

 POSITION                                       TOTAL-FORCE (eV/Angst)
      4.07167      1.06444      6.29310        -0.004226      0.002942      0.003123
      4.05405      1.06444     -0.00380         0.004226      0.002942     -0.003123
      2.70888      2.42514     -0.00396        -0.000000      0.000417      0.000000
      8.12436      2.41818      4.39757         0.010812      0.003558      0.029309
      5.41911      2.41818      1.88380        -0.010812      0.003558     -0.029309
      5.40084      2.45179      4.28527         0.018697     -0.006709     -0.008259
      8.14263      2.45179      1.99610        -0.018697     -0.006709      0.008259
    total drift:                               -0.000765      0.000203      0.000096

  FREE ENERGIE OF THE ION-ELECTRON SYSTEM (eV)
  free  energy   TOTEN  =       -53.62410507 eV

  energy  without entropy=      -53.62410507  energy(sigma->0) =      -53.62410507

 writing wavefunctions

[...]

 eigenvalue-minimisations  :     0
 total energy-change (2. order) : 0.2029041E-02  (-0.1271978E-02)
 number of electron      52.0000004 magnetization       7.9999999
 augmentation part       17.9430903 magnetization       5.3094129

  free energy =  -0.536220756451E+02  energy without entropy=  -0.536220756451E+02

[...]

--------------------------------------- Iteration      2(   7)  ---------------------------------------

 eigenvalue-minimisations  :     0
 total energy-change (2. order) :-0.3901242E-05  (-0.1618470E-05)
 number of electron      52.0000004 magnetization       7.9999999
 augmentation part       17.9429933 magnetization       5.3092993

  free energy =  -0.536242328281E+02  energy without entropy=  -0.536242328281E+02

  average scaling for gradient   0.9429

 average (electrostatic) potential at core
  the test charge radii are     0.7079  0.7215  0.9698  0.9500
  (the norm of the test charge is              1.0000)
       1 -52.8109       2 -52.8108       3 -63.0917       4 -81.7896       5 -81.7896
       6 -71.1810       7 -71.1810

 E-fermi :   5.0633     XC(G=0):  -8.7293     alpha+bet :-12.7796

 Fermi energy:         5.0633349707

[...]

 k-point    90 :       0.3333    0.5000    0.5000
  band No.  band energies     occupation
      1     -55.8570      1.00000
      2     -55.8566      1.00000
      3     -54.3106      1.00000
      4     -54.3091      1.00000
      5     -54.3086      1.00000
      6     -54.3071      1.00000
      7     -43.0367      1.00000
      8     -43.0353      1.00000
      9     -15.3740      1.00000
     10      -8.7490      1.00000
     11      -8.5681      1.00000
     12      -2.3876      1.00000
     13      -1.5611      1.00000
     14      -1.3670      1.00000
     15      -1.1084      1.00000
     16      -1.0031      1.00000
     17      -0.6887      1.00000
     18      -0.5534      1.00000
     19      -0.4007      1.00000
     20       0.0032      1.00000
     21       0.6388      1.00000
     22       1.2029      1.00000
     23       1.3692      1.00000
     24       1.5140      1.00000
     25       1.7063      1.00000
     26       1.8306      1.00000
     27       3.4623      1.00000
     28       3.6497      1.00000
     29       3.7608      1.00000
     30       4.2223      1.00000
     31      10.4772      0.00000
     32      10.7072      0.00000
     33      10.9340      0.00000
     34      11.3466      0.00000
     35      12.3302      0.00000
     36      12.8399      0.00000
     37      14.1981      0.00000
     38      14.7022      0.00000
     39      15.1316      0.00000
     40      16.0138      0.00000
 Fermi energy:         5.0633349707

 spin component 2

[...]

 k-point    90 :       0.3333    0.5000    0.5000
  band No.  band energies     occupation
      1     -49.2023      1.00000
      2     -49.2020      1.00000
      3     -49.1681      1.00000
      4     -49.1672      1.00000
      5     -49.1653      1.00000
      6     -49.1647      1.00000
      7     -43.0383      1.00000
      8     -43.0368      1.00000
      9     -14.9685      1.00000
     10      -8.4408      1.00000
     11      -8.2560      1.00000
     12      -1.3191      1.00000
     13      -0.3745      1.00000
     14       0.0522      1.00000
     15       0.8075      1.00000
     16       0.8279      1.00000
     17       1.9855      1.00000
     18       2.0199      1.00000
     19       2.5015      1.00000
     20       2.7901      1.00000
     21       4.1510      1.00000
     22       4.1775      1.00000
     23       7.7149      0.00000
     24       7.9222      0.00000
     25       8.5340      0.00000
     26       8.7343      0.00000
     27       8.8481      0.00000
     28       9.2324      0.00000
     29       9.6623      0.00000
     30       9.8190      0.00000
     31      11.3009      0.00000
     32      11.5535      0.00000
     33      11.8361      0.00000
     34      12.2134      0.00000
     35      13.1843      0.00000
     36      13.5670      0.00000
     37      14.6176      0.00000
     38      15.3450      0.00000
     39      15.7130      0.00000
     40      16.6545      0.00000

[...]

 soft charge-density along one line, spin component           2
         0         1         2         3         4         5         6         7         8         9
 total charge-density along one line

------------------------ aborting loop because EDIFF is reached ----------------------------------------

[...]

  FORCE on cell =-STRESS in cart. coord.  units (eV):
  Direction    XX          YY          ZZ          XY          YZ          ZX
  Alpha Z   150.56536   150.56536   150.56536
  Ewald   -1490.63169 -1490.81901  -895.54262     0.00056     0.00002     5.89309
  Hartree   517.89445   517.70476   884.78704     0.00072     0.00002     4.75289
  E(xc)    -212.90491  -212.90515  -212.47265     0.00001    -0.00001     0.00311
  Local     115.38959   115.78452  -800.49952    -0.00068    -0.00009   -10.27526
  n-local   221.26361   221.27267   224.74095     0.31956    -0.02951    -0.05047
  augment   271.07730   271.06668   243.70991     0.00096    -0.00011    -0.28727
  Kinetic   666.39149   666.37267   631.80762     0.22751    -0.02027    -0.13875
  Fock     -239.04963  -239.04830  -227.13886     0.08410     0.00219     0.11525
  Total      -0.00443    -0.00581    -0.04277     0.00000    -0.00000     0.01258
  in kB      -0.07669    -0.10063    -0.74058     0.00000    -0.00000     0.21788

 VOLUME and BASIS-vectors are now :
  energy-cutoff  :      520.00
  volume of cell :       92.52
      direct lattice vectors                 reciprocal lattice vectors
     5.418080955  0.000000090 -0.007164515     0.184462264 -0.184493742 -0.079354392
     2.709036612  2.710115199 -0.003582258    -0.000000006  0.368988011 -0.000000024
     2.709004330  0.000000450  6.297181235     0.000209869  0.000000000  0.158710926

  length of vectors
     5.418085692  3.831920744  6.855158347     0.272692845  0.368988011  0.158711065

 FORCES acting on ions:
    Electron-Ion                     Ewald-Force                    Non-Local-Force
   -.138E+01 0.352E+00 -.910E-01   0.140E+01 -.322E+00 0.917E-01   -.242E-01 -.280E-01 0.165E-02
   0.138E+01 0.352E+00 0.910E-01   -.140E+01 -.323E+00 -.917E-01   0.242E-01 -.280E-01 -.165E-02
   -.788E-03 0.389E+01 0.156E-04   0.135E-03 -.401E+01 -.127E-04   -.143E-06 0.100E+00 -.201E-10
   0.317E+01 -.426E+01 -.897E+02   -.322E+01 0.430E+01 0.901E+02   0.454E-01 -.405E-01 -.353E+00
   -.317E+01 -.426E+01 0.897E+02   0.322E+01 0.430E+01 -.901E+02   -.454E-01 -.405E-01 0.353E+00
   -.273E+01 0.235E+01 0.751E+02   0.261E+01 -.198E+01 -.739E+02   0.117E+00 -.348E+00 -.115E+01
   0.273E+01 0.235E+01 -.751E+02   -.261E+01 -.198E+01 0.739E+02   -.117E+00 -.348E+00 0.115E+01
   -.817E-03 0.782E+00 0.103E-03   0.222E-14 0.133E-14 0.114E-12   0.105E-05 -.733E+00 0.147E-09

 POSITION                                       TOTAL-FORCE (eV/Angst)
      4.07259      1.06463      6.29341        -0.003587      0.002990      0.002559
      4.05450      1.06463     -0.00339         0.003587      0.002990     -0.002559
      2.70904      2.42528     -0.00358        -0.000000      0.000829     -0.000000
      8.12598      2.41847      4.39983         0.008102      0.003741      0.017620
      5.41918      2.41847      1.88302        -0.008102      0.003741     -0.017620
      5.40266      2.45159      4.28534         0.019603     -0.007146     -0.001970
      8.14250      2.45159      1.99751        -0.019603     -0.007146      0.001970
    total drift:                               -0.000816     -0.002597      0.000103

  FREE ENERGIE OF THE ION-ELECTRON SYSTEM (eV)
  free  energy   TOTEN  =       -53.62423283 eV

  energy  without entropy=      -53.62423283  energy(sigma->0) =      -53.62423283

 d Force = 0.1238855E-03[ 0.104E-03, 0.144E-03]  d Energy = 0.1277595E-03-0.387E-05
 d Force = 0.3171450E+00[ 0.317E+00, 0.317E+00]  d Ewald  = 0.2111959E+00 0.106E+00

 Steepest descent step on ions:
 trial-energy change:   -0.000128  1 .order   -0.000130   -0.000151   -0.000110
  (g-gl).g = 0.151E-03      g.g   = 0.151E-03  gl.gl    = 0.000E+00
 g(Force)  = 0.144E-03   g(Stress)= 0.714E-05 ortho     = 0.000E+00
 gamma     =   0.00000
 trial     =   1.00000
 opt step  =   3.69799  (harmonic =   3.69799) maximal distance =0.00522874
 next E    =   -53.624384   (d E  =  -0.00028)

 reached required accuracy - stopping structural energy minimisation
 writing wavefunctions

 total charge

[...]

 magnetization (x)

# of ion       s       p       d       tot
    1       -0.000   0.000   0.000  -0.000
    2       -0.000   0.000   0.000  -0.000
    3        0.011   0.127   0.000   0.138
    4        0.019   0.098   0.000   0.117
    5        0.019   0.098   0.000   0.117
    6        0.037   0.025   3.566   3.627
    7        0.037   0.025   3.566   3.627
tot          0.122   0.374   7.132   7.627