 vasp.6.2.0 18Jan21 (build Feb  9 2021 11:43:09) complex
 executed on       CrayXC_GCC_OMP date 2021.05.09  14:02:30

 INCAR:
   ALGO = all
   EDIFF = 9.5e-05
   EDIFFG = -0.03
   ENCUT = 520
   GGA = pe
   IBRION = 2
   ISIF = 2
   ISMEAR = 0
   ISPIN = 2
   KPAR = 8
   LASPH = .TRUE.
   LDAU = .TRUE.
   LDAUJ = 0.0 0.0 0.0 0.0
   LDAUL = 2 -1 -1 -1
   LDAUTYPE = 2
   LDAUU = 4.0 0.0 0.0 0.0
   LMAXMIX = 4
   LORBIT = 10
   LREAL = .FALSE.
   LVHAR = .TRUE.
   LWAVE = .FALSE.
   MAGMOM = 5 5 5 5 5 5 5 5 5 5 5 5 5 5 5 5 5 5 5 5 5 5 5 5 0.6 0.6 0.6 0.6 0.6 0.6 0.6 0.6 0.6 0.6 0.6 0.6 0.6 0.6 0.6 0.6 0.6 0.6 0.6 0.6 0.6 0.6 0.6 0.6 0.6 0.6 0.6 0.6 0.6 0.6 0.6 0.6 0.6 0.6 0.6 0.6 0.6 0.6 0.6 0.6 0.6 0.6 0.6 0.6 0.6 0.6 0.6 0.6 0.6 0.6 0.6 0.6 0.6 0.6 0.6 0.6 0.6 0.6 0.6 0.6 0.6 0.6 0.6 0.6 0.6 0.6 0.6 0.6 0.6 0.6 0.6
   NCORE = 4
   NEDOS = 2000
   NELECT = 668
   NELM = 200
   NELMIN = 4
   NSW = 60
   NWRITE = 1
   PREC = accurate
   SIGMA = 0.05

 POTCAR:    PAW_PBE Fe_pv 02Aug2007
 POTCAR:    PAW_PBE Li_sv 10Sep2004
 POTCAR:    PAW_PBE O 08Apr2002
 POTCAR:    PAW_PBE S 06Sep2000
 POTCAR:    PAW_PBE Fe_pv 02Aug2007

 POTCAR:    PAW_PBE Li_sv 10Sep2004

 POTCAR:    PAW_PBE O 08Apr2002

 POTCAR:    PAW_PBE S 06Sep2000

  PAW_PBE Fe_pv 02Aug2007               :
  PAW_PBE Li_sv 10Sep2004               :
  PAW_PBE O 08Apr2002                   :
  PAW_PBE S 06Sep2000                   :

 POSCAR: # Compound: Fe24Li31O16S24. Old comment:
  positions in direct lattice
 exchange correlation table for  LEXCH =        8
   RHO(1)=    0.500       N(1)  =     2000
   RHO(2)=  100.500       N(2)  =     4000

 ion  position               nearest neighbor table
   1  0.262  0.665  0.602-  57 2.14  75 2.42  88 2.58  94 2.63
   2  0.235  0.335  0.399-  59 2.12  77 2.40  92 2.62  74 2.62
   3  0.123  0.326  0.803-  56 2.04  68 2.04  76 2.64  77 2.65  72 2.76  73 2.78
   4  0.375  0.579  0.814-  57 2.03  69 2.03  88 2.57  77 2.63  84 2.69  73 2.72
   5  0.874  0.175  0.199-  62 2.02  58 2.03  74 2.63  87 2.65  85 2.72
   6  0.124  0.422  0.185-  63 2.02  59 2.03  75 2.61  74 2.62  72 2.69  73 2.71
   7  0.016  0.916  0.602-  61 2.12  81 2.40  76 2.60  94 2.60
   8  0.980  0.585  0.399-  63 2.13  83 2.40  80 2.55  74 2.62
   9  0.869  0.574  0.789-  60 1.98  56 2.05  82 2.57  83 2.63
  10  0.125  0.829  0.817-  57 2.02  61 2.02  83 2.61  94 2.63  90 2.69  79 2.71
  11  0.627  0.426  0.197-  66 2.01  62 2.01  80 2.61  93 2.69  78 2.74
  12  0.873  0.669  0.183-  67 2.02  63 2.02  80 2.57  81 2.66  78 2.69  79 2.70
  13  0.765  0.163  0.603-  65 2.13  87 2.41  82 2.58  76 2.62
  14  0.735  0.829  0.399-  67 2.13  89 2.40  80 2.54  86 2.61
  15  0.627  0.817  0.789-  60 1.98  64 2.05  88 2.57  89 2.62
  16  0.875  0.079  0.817-  65 2.02  61 2.02  89 2.61  76 2.63  72 2.69  85 2.71
  17  0.377  0.676  0.200-  66 2.02  70 2.03  86 2.62  75 2.66  84 2.73
  18  0.624  0.920  0.187-  67 2.01  71 2.03  86 2.61  87 2.61  84 2.71  85 2.72
  19  0.521  0.422  0.601-  69 2.11  93 2.41  88 2.57  82 2.57
  20  0.486  0.085  0.399-  71 2.12  95 2.40  92 2.62  86 2.63
  21  0.375  0.074  0.803-  68 2.04  64 2.04  94 2.64  95 2.64  90 2.77  91 2.78
  22  0.626  0.329  0.813-  65 2.03  69 2.03  82 2.57  95 2.62  78 2.67  91 2.73
  23  0.125  0.924  0.197-  58 2.03  70 2.03  92 2.65  81 2.67  79 2.70
  24  0.374  0.170  0.184-  71 2.02  59 2.03  92 2.62  93 2.64  90 2.67  91 2.70
  25  0.477  0.478  0.003-  66 1.99  69 2.03  73 2.57  91 2.58
  26  0.022  0.526  0.995-  56 1.97  63 2.03  79 2.54  73 2.58
  27  0.978  0.377  0.606-  56 2.05  74 2.48  76 2.62  82 2.63
  28  0.022  0.120  0.393-  58 2.04  76 2.48  92 2.64  74 2.64
  29  0.874  0.339  0.843-  56 1.95  65 2.00  78 2.55  72 2.59
  30  0.122  0.567  0.774-  56 1.94  57 1.99  83 2.45  77 2.47
  31  0.123  0.163  0.155-  58 1.95  59 1.99  72 2.57  90 2.57
  32  0.378  0.434  0.228-  66 1.94  59 2.00  75 2.47  93 2.47
  33  0.227  0.725  0.005-  70 1.98  57 2.01  79 2.53  73 2.54
  34  0.779  0.779  0.998-  60 1.90  67 2.02  85 2.54  79 2.55
  35  0.770  0.378  0.397-  62 2.07  82 2.47  80 2.58  74 2.67
  36  0.628  0.589  0.840-  60 1.93  69 2.01  78 2.60  84 2.61
  37  0.870  0.809  0.758-  60 1.92  61 2.05  89 2.44  83 2.44
  38  0.874  0.413  0.155-  62 1.95  63 1.99  78 2.56  72 2.57
  39  0.126  0.683  0.227-  70 1.95  63 1.99  81 2.48  75 2.48
  40  0.973  0.975  0.004-  58 1.99  61 2.03  85 2.51  79 2.52
  41  0.528  0.020  0.995-  64 1.97  71 2.04  85 2.52  91 2.59
  42  0.476  0.879  0.607-  64 2.05  86 2.47  94 2.62  88 2.63
  43  0.529  0.620  0.397-  66 2.09  88 2.48  80 2.58  86 2.66
  44  0.378  0.834  0.844-  64 1.95  57 2.00  84 2.56  90 2.60
  45  0.623  0.066  0.775-  64 1.94  65 1.99  89 2.45  95 2.47
  46  0.625  0.662  0.154-  66 1.96  67 1.99  78 2.55  84 2.55
  47  0.876  0.934  0.229-  58 1.96  67 1.99  87 2.47  81 2.47
  48  0.725  0.228  0.004-  62 1.98  65 2.00  85 2.52  91 2.55
  49  0.275  0.274  0.996-  68 1.97  59 2.03  73 2.54  91 2.55
  50  0.228  0.130  0.608-  68 2.04  92 2.48  76 2.63  94 2.64
  51  0.272  0.870  0.393-  70 2.03  94 2.48  92 2.64  86 2.65
  52  0.126  0.087  0.844-  68 1.96  61 2.01  72 2.57  90 2.57
  53  0.373  0.316  0.771-  68 1.95  69 1.99  95 2.47  77 2.47
  54  0.374  0.913  0.155-  70 1.95  71 1.99  84 2.54  90 2.57
  55  0.627  0.184  0.227-  62 1.95  71 2.00  87 2.48  93 2.48
  56  0.997  0.452  0.804-  30 1.94  29 1.95  26 1.97   3 2.04  27 2.05   9 2.05
  57  0.248  0.702  0.811-  30 1.99  44 2.00  33 2.01  10 2.02   4 2.03   1 2.14
  58  0.001  0.050  0.195-  31 1.95  47 1.96  40 1.99  23 2.03   5 2.03  28 2.04
  59  0.250  0.298  0.192-  31 1.99  32 2.00  24 2.03   6 2.03  49 2.03   2 2.12
  60  0.752  0.706  0.816-  34 1.90  37 1.92  36 1.93  15 1.98   9 1.98
[...]
  81  0.995  0.837  0.368-   7 2.40  47 2.47  39 2.48  12 2.66  23 2.67
  82  0.745  0.397  0.634-  35 2.47   9 2.57  22 2.57  19 2.57  13 2.58  27 2.63
  83  0.010  0.663  0.632-   8 2.40  37 2.44  30 2.45  10 2.61   9 2.63
  84  0.497  0.748  0.003-  54 2.54  46 2.55  44 2.56  36 2.61   4 2.69  18 2.71  17 2.73
  85  0.752  0.005  0.006-  40 2.51  41 2.52  48 2.52  34 2.54  16 2.71  18 2.72   5 2.72
  86  0.506  0.846  0.368-  42 2.47  18 2.61  14 2.61  17 2.62  20 2.63  51 2.65  43 2.66
  87  0.744  0.087  0.367-  13 2.41  47 2.47  55 2.48  18 2.61   5 2.65
  88  0.489  0.654  0.635-  43 2.48  19 2.57  15 2.57   4 2.57   1 2.58  42 2.63
  89  0.755  0.918  0.632-  14 2.40  37 2.44  45 2.45  16 2.61  15 2.62
  90  0.251  0.001  1.000-  54 2.57  52 2.57  31 2.57  44 2.60  24 2.67  10 2.69  21 2.77
  91  0.500  0.249  0.000-  48 2.55  49 2.55  25 2.58  41 2.59  24 2.70  22 2.73  21 2.78
  92  0.255  0.097  0.367-  50 2.48   2 2.62  20 2.62  24 2.62  28 2.64  51 2.64  23 2.65
  93  0.495  0.337  0.368-  19 2.41  32 2.47  55 2.48  24 2.64  11 2.69
  94  0.244  0.904  0.634-  51 2.48   7 2.60  42 2.62   1 2.63  10 2.63  50 2.64  21 2.64
  95  0.505  0.161  0.634-  20 2.40  45 2.47  53 2.47  22 2.62  21 2.64

  LATTYP: Found a triclinic cell.
 ALAT       =    11.1967222147
 B/A-ratio  =     0.9425406780
 C/A-ratio  =     1.0000000005
 COS(alpha) =     0.0093862067
 COS(beta)  =     0.0432045039
 COS(gamma) =     0.2673139189

  Lattice vectors:

 A1 = (   7.3433505600,   7.9467915400,  -2.8792872600)
 A2 = (   0.0478291200,   0.1071026000, -10.5527142700)
 A3 = (  -7.8866538400,   7.9475567000,  -0.0601846200)

Analysis of symmetry for initial positions (statically):
 Subroutine PRICEL returns:
 Original cell was already a primitive cell.

 Routine SETGRP: Setting up the symmetry group for a
 triclinic supercell.

 Subroutine GETGRP returns: Found  1 space group operations
 (whereof  1 operations were pure point group operations)
 out of a pool of  2 trial point group operations.

The static configuration has the point symmetry C_1 .

Analysis of symmetry for dynamics (positions and initial velocities):
 Subroutine PRICEL returns:
 Original cell was already a primitive cell.

[...]

The dynamic configuration has the point symmetry C_1 .

Analysis of structural, dynamic, and magnetic symmetry:
 Subroutine PRICEL returns:
 Original cell was already a primitive cell.

 Routine SETGRP: Setting up the symmetry group for a
 triclinic supercell.

 Subroutine GETGRP returns: Found  1 space group operations
 (whereof  1 operations were pure point group operations)
 out of a pool of  2 trial point group operations.

The overall configuration has the point symmetry C_1 .

 Subroutine INISYM returns: Found  1 space group operations
 (whereof  1 operations are pure point group operations),
 and found     1 'primitive' translations

                                     Primitive cell

  volume of cell :    1273.6998

  direct lattice vectors                    reciprocal lattice vectors
     7.886653840 -7.947556700  0.060184620     0.065597751 -0.060732181 -0.000319074
     7.343350560  7.946791540 -2.879287260     0.065841142  0.065343877  0.000961613
    -0.047829120 -0.107102600 10.552714270     0.017590506  0.018175318  0.095026544

  length of vectors
    11.196722220 11.196722215 10.553366148     0.089395551  0.092767467  0.098335203

  position of ions in fractional coordinates (direct lattice)
     0.261890170  0.664517380  0.602188540
     0.235407410  0.335222070  0.398860900
     0.123016390  0.325871610  0.802971260
     0.374964180  0.579240680  0.814115290
     0.874267430  0.175199510  0.199136140
     0.124367690  0.421538490  0.185455400
     0.015995690  0.916367210  0.601755690
     0.979730590  0.584865610  0.398615760
     0.869353920  0.574105680  0.788997170
     0.125012480  0.829460700  0.816738640
     0.627014870  0.426250060  0.196648140
     0.872763130  0.668873540  0.183342990
     0.764588740  0.162822200  0.602525870
     0.734881510  0.829060850  0.399302200
     0.627294770  0.817453350  0.789071530
     0.875471810  0.079261530  0.816650160
     0.377431630  0.675987320  0.199505120
     0.624451020  0.920357000  0.187180360
     0.521133180  0.421809560  0.601235190
     0.485613210  0.085425740  0.399403630
     0.375206050  0.073862060  0.803070870
     0.625786470  0.328637460  0.813165290
     0.124972940  0.924207830  0.197173100
     0.374261700  0.169985220  0.184334450
     0.477074280  0.477807950  0.002713590
     0.021750520  0.525565390  0.994552480
     0.977689400  0.377460370  0.606092130
     0.022263890  0.120403390  0.393102820
     0.873897120  0.338943880  0.843318330
     0.121761630  0.566887520  0.774308240
     0.123374560  0.163006390  0.154887370
     0.377556550  0.433608870  0.227556750
     0.226706520  0.725245160  0.005243370
     0.778791450  0.779481050  0.998039740
     0.770328340  0.378321530  0.396589020
     0.628004170  0.588719890  0.840381250
     0.870181770  0.809358140  0.758044050
     0.873735060  0.412983340  0.155131590
     0.126271040  0.683321880  0.226883090
     0.972597080  0.974599300  0.004105340
     0.527777640  0.019674840  0.995369400
     0.475674510  0.879196500  0.606696090
     0.529257400  0.619541510  0.396988030
     0.378247480  0.834413700  0.843629420
     0.623389580  0.065583540  0.774502350
     0.624911220  0.661766000  0.154021090
[...]
   0.569E+02 -.754E+02 -.423E+03   -.589E+02 0.761E+02 0.424E+03   0.195E+01 -.719E+00 -.936E+00
   0.378E+02 0.153E+02 0.180E+03   -.391E+02 -.140E+02 -.182E+03   0.137E+01 -.134E+01 0.257E+01
   -.749E+01 -.309E+02 -.116E+03   0.747E+01 0.305E+02 0.115E+03   0.196E-01 0.400E+00 0.104E+01
   -.112E+02 -.294E+02 -.140E+03   0.126E+02 0.297E+02 0.141E+03   -.147E+01 -.272E+00 -.123E+01
   0.973E+01 0.239E+02 0.138E+03   -.106E+02 -.236E+02 -.136E+03   0.914E+00 -.335E+00 -.181E+01
   -.447E+02 0.737E+02 0.410E+03   0.465E+02 -.734E+02 -.411E+03   -.182E+01 -.350E+00 0.102E+01
   0.580E+02 -.728E+02 -.423E+03   -.600E+02 0.724E+02 0.424E+03   0.199E+01 0.420E+00 -.116E+01
   0.423E+02 0.495E+02 0.167E+03   -.433E+02 -.519E+02 -.169E+03   0.105E+01 0.234E+01 0.201E+01
   -.778E+01 -.113E+02 -.121E+03   0.775E+01 0.113E+02 0.120E+03   0.203E-01 -.138E-03 0.109E+01
   -.199E+02 -.239E+02 -.138E+03   0.211E+02 0.241E+02 0.139E+03   -.118E+01 -.213E+00 -.133E+01
   0.188E+02 0.222E+02 0.125E+03   -.188E+02 -.222E+02 -.124E+03   0.181E-02 0.343E-01 -.140E+01
   -.823E+02 0.725E+02 0.418E+03   0.847E+02 -.725E+02 -.419E+03   -.238E+01 0.658E-01 0.729E+00
   0.427E+02 -.828E+02 -.405E+03   -.442E+02 0.828E+02 0.406E+03   0.148E+01 -.841E-01 -.965E+00
   0.258E+02 0.281E+02 0.127E+03   -.264E+02 -.283E+02 -.128E+03   0.574E+00 0.200E+00 0.159E+01
   -.747E+01 -.376E+02 -.105E+03   0.818E+01 0.372E+02 0.104E+03   -.726E+00 0.406E+00 0.165E+01
   -.359E+02 -.270E+02 -.134E+03   0.358E+02 0.272E+02 0.135E+03   0.998E-01 -.206E+00 -.110E+01
   0.972E+01 0.217E+02 0.111E+03   -.101E+02 -.215E+02 -.110E+03   0.335E+00 -.114E+00 -.950E+00
   0.171E+02 -.248E+01 -.121E+02   -.172E+02 0.258E+01 0.126E+02   0.138E+00 -.940E-01 -.492E+00
   -.157E+02 -.109E+01 0.170E+02   0.158E+02 0.103E+01 -.177E+02   -.135E+00 0.580E-01 0.654E+00
   0.225E+02 0.160E+02 0.865E+02   -.226E+02 -.159E+02 -.858E+02   0.784E-01 -.147E+00 -.635E+00
   -.236E+02 -.169E+02 -.864E+02   0.237E+02 0.168E+02 0.858E+02   -.731E-01 0.126E+00 0.647E+00
   -.295E+02 -.469E+01 -.173E+02   0.299E+02 0.480E+01 0.172E+02   -.413E+00 -.114E+00 0.847E-01
   0.395E+02 0.154E+01 0.100E+02   -.401E+02 -.159E+01 -.104E+02   0.530E+00 0.554E-01 0.396E+00
   0.254E+02 0.406E+01 0.184E+02   -.258E+02 -.405E+01 -.183E+02   0.377E+00 -.904E-02 -.628E-01
   -.375E+02 -.333E+01 -.143E+02   0.381E+02 0.344E+01 0.146E+02   -.518E+00 -.110E+00 -.371E+00
   0.170E+02 -.800E+00 -.139E+02   -.172E+02 0.905E+00 0.144E+02   0.225E+00 -.108E+00 -.424E+00
   -.187E+02 0.140E+01 0.170E+02   0.184E+02 -.163E+01 -.183E+02   0.228E+00 0.221E+00 0.123E+01
   -.227E+02 -.187E+02 -.879E+02   0.228E+02 0.187E+02 0.875E+02   -.134E+00 -.972E-02 0.434E+00
   -.259E+02 -.417E+01 -.108E+02   0.266E+02 0.416E+01 0.107E+02   -.723E+00 0.174E-01 0.731E-01
   0.437E+02 0.696E+01 0.277E+02   -.446E+02 -.699E+01 -.278E+02   0.883E+00 0.244E-01 0.337E-01
   0.256E+02 0.811E+01 0.193E+02   -.259E+02 -.804E+01 -.192E+02   0.342E+00 -.760E-01 -.621E-01
   -.375E+02 -.257E+01 -.150E+02   0.379E+02 0.266E+01 0.154E+02   -.401E+00 -.815E-01 -.364E+00
   0.191E+02 -.179E+01 -.120E+02   -.194E+02 0.189E+01 0.125E+02   0.296E+00 -.101E+00 -.528E+00
   -.145E+02 0.669E+01 0.146E+02   0.147E+02 -.690E+01 -.152E+02   -.171E+00 0.217E+00 0.664E+00
   0.230E+02 0.172E+02 0.852E+02   -.231E+02 -.171E+02 -.846E+02   0.871E-01 -.703E-01 -.578E+00
   -.216E+02 -.151E+02 -.880E+02   0.218E+02 0.150E+02 0.876E+02   -.179E+00 0.143E+00 0.383E+00
   -.300E+02 -.304E+01 -.181E+02   0.304E+02 0.295E+01 0.180E+02   -.400E+00 0.904E-01 0.676E-01
   0.400E+02 0.422E+01 0.901E+01   -.405E+02 -.434E+01 -.939E+01   0.497E+00 0.125E+00 0.386E+00
   0.255E+02 0.195E+01 0.231E+02   -.258E+02 -.197E+01 -.231E+02   0.327E+00 0.281E-01 -.613E-02
   -.378E+02 -.413E+01 -.163E+02   0.382E+02 0.422E+01 0.167E+02   -.371E+00 -.971E-01 -.369E+00
   0.177E+02 -.218E+01 -.142E+02   -.180E+02 0.219E+01 0.146E+02   0.239E+00 -.646E-02 -.400E+00
   -.182E+02 0.210E+01 0.132E+02   0.184E+02 -.220E+01 -.139E+02   -.177E+00 0.917E-01 0.661E+00
   0.207E+02 0.167E+02 0.862E+02   -.207E+02 -.166E+02 -.855E+02   0.845E-01 -.125E+00 -.672E+00
   -.234E+02 -.169E+02 -.869E+02   0.234E+02 0.168E+02 0.863E+02   -.424E-01 0.120E+00 0.680E+00
   -.253E+02 -.375E+01 -.176E+02   0.257E+02 0.377E+01 0.175E+02   -.477E+00 -.200E-01 0.480E-01
   0.373E+02 0.466E+01 0.178E+02   -.378E+02 -.475E+01 -.182E+02   0.444E+00 0.866E-01 0.343E+00
   0.242E+02 0.418E+01 0.196E+02   -.246E+02 -.426E+01 -.195E+02   0.361E+00 0.815E-01 -.351E-01
   -.362E+02 -.607E+01 -.137E+02   0.367E+02 0.611E+01 0.141E+02   -.486E+00 -.450E-01 -.378E+00
   0.905E+01 -.246E+01 0.458E+02   -.946E+01 0.282E+01 -.460E+02   0.416E+00 -.354E+00 0.276E+00
   -.755E+01 -.173E+02 -.109E+03   0.782E+01 0.177E+02 0.112E+03   -.263E+00 -.356E+00 -.295E+01
   -.155E+02 -.106E+02 -.526E+02   0.159E+02 0.107E+02 0.529E+02   -.407E+00 -.830E-01 -.319E+00
   0.569E+01 0.194E+02 0.106E+03   -.592E+01 -.199E+02 -.109E+03   0.229E+00 0.510E+00 0.315E+01
   0.100E+02 0.858E+01 0.442E+02   -.107E+02 -.893E+01 -.454E+02   0.720E+00 0.360E+00 0.122E+01
[...]
   -.115E+03 0.196E+02 0.212E+03   0.115E+03 -.197E+02 -.213E+03   -.606E+00 0.301E-01 0.123E+01
   0.120E+03 0.338E+01 0.459E+02   -.120E+03 -.333E+01 -.459E+02   0.306E+00 -.598E-01 0.166E-02
   -.170E+02 0.512E+01 0.185E+02   0.172E+02 -.518E+01 -.186E+02   -.129E+00 0.572E-01 0.112E+00
   0.246E+02 0.381E+01 0.148E+02   -.247E+02 -.387E+01 -.149E+02   0.146E+00 0.652E-01 0.128E+00
   0.984E+02 -.348E+02 -.202E+03   -.989E+02 0.350E+02 0.203E+03   0.511E+00 -.193E+00 -.989E+00
   -.110E+03 -.117E+02 -.495E+02   0.110E+03 0.117E+02 0.495E+02   -.230E+00 0.388E-01 0.592E-01
   -.115E+03 0.487E+02 0.205E+03   0.116E+03 -.490E+02 -.206E+03   -.597E+00 0.363E+00 0.115E+01
   0.118E+03 0.214E+02 0.435E+02   -.119E+03 -.215E+02 -.435E+02   0.292E+00 0.726E-01 -.146E-01
   0.951E+00 0.121E+01 0.202E+00   -.998E+00 -.123E+01 -.212E+00   0.497E-01 0.159E-01 0.182E-01
   -.147E+01 -.817E+00 0.227E+01   0.152E+01 0.812E+00 -.229E+01   -.520E-01 0.111E-01 0.367E-01
   0.987E+02 -.338E+02 -.199E+03   -.992E+02 0.339E+02 0.200E+03   0.533E+00 -.154E+00 -.970E+00
   -.110E+03 -.130E+02 -.481E+02   0.110E+03 0.130E+02 0.480E+02   -.210E+00 0.164E-01 0.118E+00
   -.101E+03 0.364E+02 0.197E+03   0.102E+03 -.366E+02 -.198E+03   -.493E+00 0.219E+00 0.948E+00
   0.107E+03 0.395E+01 0.498E+02   -.107E+03 -.386E+01 -.497E+02   0.129E+00 -.962E-01 -.805E-01
   -.107E+01 -.550E+00 -.344E+01   0.739E-12 0.184E-12 -.103E-11   0.108E+01 0.547E+00 0.343E+01

 POSITION                                       TOTAL-FORCE (eV/Angst)
      6.91642      3.13490      4.45715         0.002752      0.003995     -0.000794
      4.29915      0.75031      3.25803        -0.006333      0.002284     -0.001522
      3.32477      1.52595      7.54265        -0.002500     -0.024945     -0.005663
      7.17184      1.53586      6.94589        -0.012349      0.006667     -0.003210
      8.17207     -5.57734      1.64959        -0.001968      0.006006      0.009964
      4.06748      2.34160      0.75081         0.003197     -0.012368      0.013533
      6.82658      7.09060      3.71263         0.014604     -0.007381     -0.010374
     12.00260     -3.18135      2.58145         0.003464     -0.006290     -0.018518
     11.03442     -2.43145      6.72537        -0.003186     -0.024920      0.000005
      7.03789      5.51053      6.23808         0.001424     -0.000502     -0.005979
      8.06575     -1.61698      0.88561        -0.004470     -0.003523      0.011098
     11.78618     -1.64057      0.06141         0.014135     -0.003763      0.014137
      7.19689     -4.84723      5.93549        -0.004629      0.000852     -0.002472
     11.86474      0.70509      1.87085         0.003128      0.004960     -0.014614
     10.91236      1.42616      6.01092        -0.003538      0.017052     -0.010735
      7.44753     -6.41545      8.44235        -0.004128     -0.005993     -0.009071
      7.93114      2.35090      0.18167        -0.002593      0.007928      0.012531
     11.67438      2.33098     -0.63713        -0.003772      0.019985      0.010611
      7.17874     -0.85410      5.16152         0.009849     -0.000856     -0.011622
      4.43807     -3.22336      3.99805        -0.005008     -0.004843      0.004716
      3.46311     -2.48102      8.28449        -0.008126      0.019271     -0.009108
      7.30977     -2.44895      7.67252        -0.013395     -0.007061      0.000948
      7.76297      6.33014     -0.57283        -0.005828     -0.004307      0.006554
      4.19112     -1.64337      1.47832         0.000792      0.003696      0.000641
      7.27110      0.00517     -1.31840        -0.009545      0.007697      0.005454
      3.98338      3.89718      8.98328         0.001680      0.000234     -0.008649
     10.45353     -4.83556      5.36794         0.000569     -0.009980      0.002882
      1.04095      0.73777      3.80297         0.019289     -0.003659      0.002661
      9.34077     -4.34215      7.97598        -0.003489     -0.000492     -0.002367
      5.08611      3.45430      6.54615        -0.003365     -0.002330      0.006574
      2.16262      0.29826      1.17257        -0.002522      0.001619      0.000835
      6.15092      0.42078      1.17558         0.007323      0.001125      0.002597
      7.11343      3.96105     -2.01921         0.002856     -0.002654      0.002065
     11.81833     -0.10201      8.33455         0.007399     -0.001025     -0.021101
      8.83449     -3.15826      3.14216         0.007241      0.001228      0.004083
      9.23583     -0.40267      7.21101         0.005989      0.003102      0.013389
     12.76997     -0.56521      5.72142        -0.009892     -0.002012     -0.006572
      9.91611     -3.67878      0.50055        -0.002517     -0.004760      0.003285
      6.00288      4.40237      0.43435         0.000760      0.006403      0.001057
     14.82716      0.01473     -2.70429         0.007484     -0.004405     -0.001155
      4.25927     -4.14480     10.47896        -0.005605     -0.000228     -0.006153
     10.17871      3.14136      3.89946        -0.005059      0.014738      0.001946
      8.70459      0.67455      2.43732         0.008506      0.003741      0.002973
      9.07015      3.53441      6.52283        -0.003801      0.003780      0.001906
      5.36102     -4.51620      8.02179        -0.003197      0.005347      0.006854
      9.78067      0.27590     -0.24246        -0.002856      0.006320     -0.004350
     13.75966      0.43124     -0.21740         0.002587     -0.002068      0.012187
      7.38859     -3.95209     -0.56483        -0.001898      0.001782      0.006187
      4.13344     -0.11003      9.73515         0.010265     -0.005792     -0.004188
      2.72524     -0.84382      6.05115        -0.002810     -0.001670      0.009531
      8.51512      4.71353      1.66282         0.008966      0.003447      0.003292
      1.59545     -0.40072      8.66005         0.000833     -0.002049      0.003141
      5.23264     -0.53553      7.24399        -0.005141     -0.002044     -0.016586
      9.64069      4.26666     -0.96695        -0.003404     -0.003126      0.007984
      6.28197     -3.54680      1.89950         0.006947      0.000427      0.003136
     11.14775     -4.41445      7.24610         0.000791      0.007844      0.010170
      7.07484      3.52048      6.55403         0.008637     -0.002008      0.000115
      0.36137      0.37144      1.91852        -0.004188     -0.006433     -0.012566
      4.15425      0.36054      1.18185         0.000642     -0.003136     -0.007807
     11.07796     -0.45068      6.62214        -0.001073      0.008294      0.019952
[...]
     13.97130     -1.29853      1.53308         0.002354      0.000271      0.006878
      8.76524     -2.83218      5.58881         0.010334      0.000309     -0.020604
      4.91952      5.11990      4.75564        -0.002523      0.000532      0.009920
      9.40973      1.99531     -2.08771         0.003367     -0.004642      0.002525
      5.96768     -5.93039      0.09766        -0.000637      0.000833     -0.004394
     10.18512      2.66746      1.47906         0.000533     -0.000834      0.004367
      6.49212     -5.26308      3.67064        -0.006939     -0.000068     -0.003242
      8.62719      1.24626      4.84542         0.010671     -0.003511     -0.022656
     12.66900      1.22476      4.07235        -0.004663      0.006872      0.007137
      1.93645     -2.09570     10.56134         0.001400     -0.001832      0.007817
      5.76857     -1.99181     -0.68382         0.000867      0.005341      0.012547
      2.70619     -1.29703      3.61048         0.002013      0.000362     -0.010163
      6.36151     -1.29681      2.94285        -0.000249     -0.001086     -0.011348
      8.53496      5.17184      4.10076         0.003405     -0.011121      0.019620
      5.12953     -2.79980      6.25860        -0.009915     -0.008306      0.015063
    total drift:                                0.009366     -0.002384     -0.011255

  FREE ENERGIE OF THE ION-ELECTRON SYSTEM (eV)
  free  energy   TOTEN  =      -497.74854546 eV

  energy  without entropy=     -497.73502918  energy(sigma->0) =     -497.74178732

 reached required accuracy - stopping structural energy minimisation

 total charge

[...]

 magnetization (x)

# of ion       s       p       d       tot
    1        0.034   0.027   3.582   3.643
    2        0.036   0.026   3.585   3.647
    3        0.036   0.029   3.539   3.604
    4        0.035   0.029   3.558   3.622
    5        0.036   0.029   3.525   3.590
    6        0.036   0.029   3.560   3.625
    7        0.035   0.027   3.583   3.646
    8        0.035   0.028   3.584   3.646
    9        0.039   0.031   3.532   3.602
   10        0.036   0.029   3.559   3.625
   11        0.036   0.030   3.511   3.577
   12        0.035   0.029   3.553   3.617
   13        0.034   0.027   3.580   3.642
   14        0.035   0.028   3.583   3.646
   15        0.039   0.031   3.528   3.598
   16        0.036   0.029   3.560   3.625
   17        0.036   0.030   3.525   3.590
   18        0.036   0.029   3.561   3.626
   19        0.035   0.029   3.584   3.648
   20        0.035   0.026   3.586   3.647
   21        0.036   0.030   3.537   3.603
   22        0.035   0.029   3.560   3.624
   23        0.036   0.029   3.529   3.594
   24        0.036   0.029   3.564   3.628
   25       -0.000   0.000   0.000   0.000
   26        0.000   0.000   0.000   0.000
   27        0.001   0.002   0.000   0.002
   28        0.001   0.002   0.000   0.002
   29       -0.000  -0.000   0.000  -0.000
   30        0.000   0.001   0.000   0.001
   31       -0.000  -0.000   0.000  -0.000
   32        0.000   0.001   0.000   0.001
   33        0.000   0.000   0.000   0.000
   34        0.000   0.001   0.000   0.001
   35        0.001   0.002   0.000   0.003
   36       -0.000  -0.000   0.000  -0.001
   37        0.000   0.000   0.000   0.001
   38       -0.000  -0.000   0.000  -0.001
   39        0.000   0.000   0.000   0.001
   40       -0.000   0.000   0.000   0.000
   41        0.000   0.000   0.000   0.001
   42        0.001   0.002   0.000   0.002
   43        0.001   0.002   0.000   0.003
   44       -0.000  -0.000   0.000  -0.000
   45        0.000   0.000   0.000   0.001
   46       -0.000  -0.000   0.000  -0.001
   47        0.000   0.000   0.000   0.001
   48        0.000   0.000   0.000   0.000
   49       -0.000   0.000   0.000   0.000
   50        0.001   0.002   0.000   0.003
   51        0.001   0.002   0.000   0.002
   52       -0.000  -0.000   0.000  -0.001
   53        0.000   0.001   0.000   0.001
   54       -0.000  -0.000   0.000  -0.001
   55        0.000   0.000   0.000   0.001
   56        0.008   0.062   0.000   0.070
   57        0.012   0.114   0.000   0.126
   58        0.008   0.063   0.000   0.071
   59        0.012   0.112   0.000   0.124
   60        0.007   0.072   0.000   0.078
[...]
   81        0.015   0.065   0.000   0.080
   82        0.015   0.068   0.000   0.082
   83        0.015   0.062   0.000   0.078
   84        0.013   0.038   0.000   0.051
   85        0.013   0.039   0.000   0.052
   86        0.015   0.071   0.000   0.086
   87        0.015   0.066   0.000   0.081
   88        0.014   0.066   0.000   0.080
   89        0.015   0.061   0.000   0.076
   90        0.014   0.042   0.000   0.056
   91        0.014   0.041   0.000   0.055
   92        0.015   0.067   0.000   0.081
   93        0.015   0.062   0.000   0.077
   94        0.015   0.070   0.000   0.085
   95        0.015   0.062   0.000   0.077
tot          1.362   3.486  85.369  90.217