 vasp.6.2.0 18Jan21 (build Feb  9 2021 11:43:09) complex
 executed on       CrayXC_GCC_OMP date 2021.05.02  09:25:23

 INCAR:
   ALGO = all
   EDIFF = 0.000111
   EDIFFG = -0.03
   ENCUT = 520
   GGA = pe
   IBRION = 2
   ISIF = 2
   ISMEAR = 0
   ISPIN = 2
   KPAR = 8
   LASPH = .TRUE.
   LDAU = .TRUE.
   LDAUJ = 0.0 0.0 0.0 0.0
   LDAUL = 2 -1 -1 -1
   LDAUTYPE = 2
   LDAUU = 4.0 0.0 0.0 0.0
   LMAXMIX = 4
   LORBIT = 10
   LREAL = .FALSE.
   LVHAR = .TRUE.
   LWAVE = .FALSE.
   MAGMOM = 5 5 5 5 5 5 5 5 5 5 5 5 5 5 5 5 5 5 5 5 5 5 5 5 5 5 5 5 5 5 5 5 0.6 0.6 0.6 0.6 0.6 0.6 0.6 0.6 0.6 0.6 0.6 0.6 0.6 0.6 0.6 0.6 0.6 0.6 0.6 0.6 0.6 0.6 0.6 0.6 0.6 0.6 0.6 0.6 0.6 0.6 0.6 0.6 0.6 0.6 0.6 0.6 0.6 0.6 0.6 0.6 0.6 0.6 0.6 0.6 0.6 0.6 0.6 0.6 0.6 0.6 0.6 0.6 0.6 0.6 0.6 0.6 0.6 0.6 0.6 0.6 0.6 0.6 0.6 0.6 0.6 0.6 0.6 0.6 0.6 0.6 0.6 0.6 0.6 0.6 0.6 0.6 0.6 0.6 0.6
   NCORE = 8
   NEDOS = 2000
   NELECT = 828
   NELM = 200
   NELMIN = 4
   NSW = 60
   NWRITE = 1
   PREC = accurate
   SIGMA = 0.05

 POTCAR:    PAW_PBE Fe_pv 02Aug2007
 POTCAR:    PAW_PBE Li_sv 10Sep2004
 POTCAR:    PAW_PBE O 08Apr2002
 POTCAR:    PAW_PBE S 06Sep2000
 POTCAR:    PAW_PBE Fe_pv 02Aug2007

 POTCAR:    PAW_PBE Li_sv 10Sep2004

 POTCAR:    PAW_PBE O 08Apr2002

 POTCAR:    PAW_PBE S 06Sep2000

  PAW_PBE Fe_pv 02Aug2007               :
  PAW_PBE Li_sv 10Sep2004               :
  PAW_PBE O 08Apr2002                   :
  PAW_PBE S 06Sep2000                   :

 POSCAR: # Compound: Fe32Li31O16S32. Old comment:
  positions in direct lattice
 exchange correlation table for  LEXCH =        8
   RHO(1)=    0.500       N(1)  =     2000
   RHO(2)=  100.500       N(2)  =     4000

 ion  position               nearest neighbor table
   1  0.974  0.079  0.159-  73 2.05  84 2.43  80 2.72  97 2.72  83 2.72  98 2.72
   2  0.225  0.330  0.159-  68 2.04  85 2.43  99 2.72  98 2.72  80 2.73  81 2.73
   3  0.724  0.329  0.158-  79 2.04  86 2.42  80 2.72  82 2.72  97 2.72  99 2.72
   4  0.973  0.580  0.159-  66 2.04  87 2.42  82 2.71  83 2.72  80 2.72  81 2.73
   5  0.975  0.422  0.341-  70 2.04  80 2.44  85 2.69  86 2.70  87 2.72  84 2.73
   6  0.223  0.670  0.341-  67 2.04  81 2.44  87 2.67  85 2.71 100 2.72 102 2.73
   7  0.715  0.666  0.347-  72 1.98  82 2.46 100 2.63  86 2.67
   8  0.973  0.920  0.341-  77 2.04  83 2.44  87 2.71 101 2.72  84 2.72 102 2.72
   9  0.973  0.079  0.659-  77 2.04  92 2.44  91 2.71 105 2.72  88 2.72 106 2.72
  10  0.224  0.330  0.659-  64 2.04  93 2.44 107 2.71  89 2.72 106 2.72  88 2.72
  11  0.723  0.329  0.659-  75 2.04  94 2.45 105 2.69  90 2.71 107 2.72  88 2.73
  12  0.975  0.580  0.659-  70 2.04  95 2.44  89 2.69  90 2.70  91 2.72  88 2.73
  13  0.974  0.421  0.841-  66 2.05  88 2.43  94 2.72  95 2.72  92 2.72  93 2.72
  14  0.225  0.670  0.841-  71 2.04  89 2.43 108 2.72  93 2.72  95 2.73 110 2.73
  15  0.724  0.671  0.842-  76 2.04  90 2.42  95 2.72 109 2.72  94 2.72 108 2.72
  16  0.973  0.920  0.841-  73 2.04  91 2.42 109 2.71  92 2.72  95 2.72 110 2.73
  17  0.473  0.580  0.159-  65 2.04 100 2.42  81 2.71  96 2.71  82 2.73  99 2.73
  18  0.724  0.829  0.159-  76 2.05 101 2.43  82 2.72  96 2.72  97 2.72  83 2.72
  19  0.224  0.830  0.159-  71 2.04 102 2.43  98 2.72  81 2.72  96 2.72  83 2.72
  20  0.474  0.080  0.159-  74 2.05 103 2.42  99 2.71  98 2.72  97 2.72  96 2.72
  21  0.474  0.921  0.341-  78 2.04  96 2.44 103 2.67 101 2.71 100 2.72 102 2.73
  22  0.723  0.170  0.341-  75 2.04  97 2.44 101 2.69  86 2.71 103 2.72  84 2.73
  23  0.224  0.171  0.341-  64 2.04  98 2.44 103 2.71  85 2.72 102 2.72  84 2.72
  24  0.481  0.433  0.347-  69 1.98  99 2.47 100 2.63  86 2.67
  25  0.481  0.586  0.653-  69 1.98 108 2.47 104 2.63  90 2.67
  26  0.715  0.820  0.653-  72 1.98 109 2.46 104 2.63  90 2.67
  27  0.223  0.829  0.659-  67 2.04 110 2.44  91 2.67  89 2.71 104 2.72 106 2.73
  28  0.474  0.080  0.659-  78 2.04 111 2.44 107 2.67 105 2.71 104 2.72 106 2.73
  29  0.473  0.922  0.841-  74 2.04 104 2.42 110 2.71 111 2.71 109 2.73 108 2.73
  30  0.724  0.170  0.841-  79 2.05 105 2.43 109 2.72 111 2.72  94 2.72  92 2.72
  31  0.224  0.171  0.841-  68 2.04 106 2.43  93 2.72 110 2.72  92 2.72 111 2.72
  32  0.474  0.421  0.841-  65 2.05 107 2.42 108 2.71  93 2.72  94 2.72 111 2.72
  33  0.081  0.143  0.000-  73 1.95  68 1.95  92 2.55  80 2.55
  34  0.867  0.857  0.000-  73 1.94  76 1.94  83 2.54  95 2.55
  35  0.867  0.356  1.000-  66 1.94  79 1.94  92 2.54  80 2.55
  36  0.081  0.643  1.000-  71 1.95  66 1.95  83 2.55  95 2.55
  37  0.117  0.394  0.500-  64 1.95  70 1.96  85 2.54  89 2.54
  38  0.339  0.611  0.500-  69 1.92  67 1.95  85 2.62  89 2.62
  39  0.823  0.604  0.500-  72 1.92  70 1.97  90 2.52  86 2.52
  40  0.620  0.401  0.500-  69 1.92  75 1.97  90 2.52  86 2.52
  41  0.081  0.143  0.500-  64 1.93  77 1.93  88 2.55  84 2.55
  42  0.870  0.857  0.500-  72 1.88  77 1.93  91 2.56  87 2.56
  43  0.868  0.356  0.500-  75 1.94  70 1.94  88 2.55  84 2.55
  44  0.082  0.643  0.500-  70 1.95  67 1.95  91 2.55  87 2.55
  45  0.117  0.393  0.000-  68 1.94  66 1.95  93 2.55  81 2.55
  46  0.331  0.607  0.000-  71 1.94  65 1.95  81 2.54  93 2.55
  47  0.831  0.607  0.000-  66 1.94  76 1.94  94 2.55  82 2.59
  48  0.618  0.394  0.000-  65 1.94  79 1.94  94 2.55  82 2.58
  49  0.581  0.643  1.000-  76 1.94  65 1.94  96 2.54 108 2.58
  50  0.367  0.357  0.000-  68 1.94  65 1.95 111 2.54  99 2.58
  51  0.367  0.857  1.000-  71 1.94  74 1.95  96 2.54 108 2.58
  52  0.581  0.144  0.000-  79 1.94  74 1.94 111 2.54  99 2.58
  53  0.613  0.885  0.500-  72 1.92  78 1.95 101 2.62 105 2.62
  54  0.830  0.107  0.500-  77 1.95  75 1.96 101 2.54 105 2.54
  55  0.331  0.106  0.500-  78 1.95  64 1.95 102 2.55 106 2.55
  56  0.118  0.893  0.500-  67 1.95  77 1.95 102 2.55 106 2.55
  57  0.367  0.354  0.500-  69 1.88  64 1.93 107 2.56 103 2.56
  58  0.369  0.855  0.500-  78 1.93  67 1.93 100 2.54 104 2.54
  59  0.581  0.143  0.500-  75 1.95  78 1.95 107 2.55 103 2.55
  60  0.618  0.893  1.000-  74 1.94  76 1.94  97 2.55 109 2.58
[...]
  97  0.724  0.075  0.151-  22 2.44  60 2.55  61 2.55   1 2.72   3 2.72  18 2.72  20 2.72
  98  0.224  0.075  0.151-  23 2.44  62 2.55  63 2.55  19 2.72   1 2.72   2 2.72  20 2.72
  99  0.474  0.328  0.155-  24 2.47  52 2.58  50 2.58  20 2.71   2 2.72   3 2.72  17 2.73
 100  0.473  0.674  0.347-  17 2.42  58 2.54   7 2.63  24 2.63   6 2.72  21 2.72
 101  0.724  0.926  0.348-  18 2.43  54 2.54  53 2.62  22 2.69  21 2.71   8 2.72
 102  0.224  0.924  0.348-  19 2.43  56 2.55  55 2.55  23 2.72   8 2.72   6 2.73  21 2.73
 103  0.473  0.170  0.347-  20 2.42  59 2.55  57 2.56  21 2.67  23 2.71  22 2.72
 104  0.473  0.827  0.653-  29 2.42  58 2.54  26 2.63  25 2.63  27 2.72  28 2.72
 105  0.724  0.078  0.652-  30 2.43  54 2.54  53 2.62  11 2.69  28 2.71   9 2.72
 106  0.224  0.076  0.652-  31 2.43  56 2.55  55 2.55  10 2.72   9 2.72  27 2.73  28 2.73
 107  0.473  0.322  0.653-  32 2.42  59 2.55  57 2.56  28 2.67  10 2.71  11 2.72
 108  0.474  0.672  0.845-  25 2.47  49 2.58  51 2.58  32 2.71  14 2.72  15 2.72  29 2.73
 109  0.724  0.922  0.845-  26 2.46  60 2.58  61 2.59  16 2.71  15 2.72  30 2.72  29 2.73
 110  0.224  0.925  0.849-  27 2.44  62 2.54  63 2.55  29 2.71  31 2.72  14 2.73  16 2.73
 111  0.474  0.175  0.849-  28 2.44  50 2.54  52 2.54  29 2.71  31 2.72  30 2.72  32 2.72

  LATTYP: Found a base centered orthorhombic cell.
 ALAT       =    10.8749739061
 B/A-ratio  =     2.3644048249
 C/A-ratio  =     1.0000101723

  Lattice vectors:

 A1 = (   3.8335882400,   3.8349345400, -12.8627506400)
 A2 = (   3.8548230400,   3.8561790800,  12.8500725900)
 A3 = (   7.6911861600,  -7.6885056400,   0.0000000100)

Analysis of symmetry for initial positions (statically):
 Subroutine PRICEL returns:
 Original cell was already a primitive cell.

 Routine SETGRP: Setting up the symmetry group for a
 base centered orthorhombic supercell.

 Subroutine GETGRP returns: Found  1 space group operations
 (whereof  1 operations were pure point group operations)
 out of a pool of  8 trial point group operations.

The static configuration has the point symmetry C_1 .

Analysis of symmetry for dynamics (positions and initial velocities):
 Subroutine PRICEL returns:
 Original cell was already a primitive cell.

[...]

The dynamic configuration has the point symmetry C_1 .

Analysis of structural, dynamic, and magnetic symmetry:
 Subroutine PRICEL returns:
 Original cell was already a primitive cell.

 Routine SETGRP: Setting up the symmetry group for a
 base centered orthorhombic supercell.

 Subroutine GETGRP returns: Found  1 space group operations
 (whereof  1 operations were pure point group operations)
 out of a pool of  8 trial point group operations.

The overall configuration has the point symmetry C_1 .

 Subroutine INISYM returns: Found  1 space group operations
 (whereof  1 operations are pure point group operations),
 and found     1 'primitive' translations

                                     Primitive cell

  volume of cell :    1520.4808

  direct lattice vectors                    reciprocal lattice vectors
     7.691186160 -7.688505640  0.000000010     0.065032232 -0.065009382  0.000000006
     7.688411280  7.691113620 -0.012678050     0.065042145  0.065064822  0.038783628
    -3.833588240 -3.834934540 12.862750640     0.000064108  0.000064131  0.077782096

  length of vectors
    10.875084530 10.874973906 13.958992648     0.091953308  0.099840280  0.077782149

  position of ions in fractional coordinates (direct lattice)
     0.973927570  0.079458040  0.158736660
     0.224525310  0.329548860  0.159399500
     0.724323920  0.328880280  0.158318680
     0.973271960  0.579711620  0.159214450
     0.974646270  0.421620420  0.341392580
     0.223330020  0.670324080  0.341181150
     0.714752570  0.666457580  0.346757360
     0.973498220  0.920289490  0.341068800
     0.973484770  0.079221240  0.658924280
     0.224480000  0.329931480  0.658950240
     0.722907840  0.328695520  0.658776900
     0.974661080  0.580234000  0.658596360
     0.973914800  0.420706650  0.841265990
     0.224518080  0.670135750  0.840612580
     0.724320650  0.670544740  0.841693980
     0.973265040  0.920496370  0.840797480
     0.473128080  0.580461740  0.158670240
     0.723997890  0.829379190  0.159385610
     0.224102050  0.829538700  0.158668820
     0.474008220  0.080097300  0.159077760
     0.474473390  0.921446530  0.340992750
     0.722910160  0.169910940  0.341214320
     0.224482550  0.170945740  0.341034890
     0.481218520  0.432653830  0.346745620
     0.481210020  0.585936290  0.653248140
     0.714728480  0.819665780  0.653228620
     0.223315220  0.829173190  0.658811150
     0.474460450  0.080469950  0.658998270
     0.473120100  0.921796350  0.841346660
     0.723994320  0.169987410  0.840624260
     0.224090750  0.170863090  0.841340730
     0.473986420  0.421013290  0.840930830
     0.081164050  0.142985790  0.000017070
     0.867288740  0.856731750  0.000236290
     0.867289850  0.356490700  0.999758890
     0.081171060  0.642968900  0.999986350
     0.117056520  0.393766410  0.499990600
     0.339217320  0.610867990  0.499988040
     0.823180990  0.603765360  0.499998600
[...]
   -.124E+02 -.365E+01 -.596E+02   0.125E+02 0.358E+01 0.583E+02   -.964E-01 0.783E-01 0.138E+01
   -.224E+01 -.524E+01 -.599E+02   0.195E+01 0.512E+01 0.584E+02   0.280E+00 0.119E+00 0.152E+01
   -.252E+00 -.665E+01 -.588E+02   0.493E+00 0.650E+01 0.574E+02   -.231E+00 0.150E+00 0.138E+01
   -.135E+00 0.315E-01 0.650E+02   0.117E+00 0.463E-02 -.639E+02   0.172E-01 -.304E-01 -.109E+01
   -.626E+01 0.850E+01 0.704E+02   0.628E+01 -.857E+01 -.695E+02   -.117E-01 0.622E-01 -.862E+00
   -.384E+00 -.438E+01 0.627E+02   0.389E+00 0.430E+01 -.617E+02   -.151E-02 0.756E-01 -.102E+01
   0.766E+01 -.975E+01 0.715E+02   -.774E+01 0.985E+01 -.706E+02   0.679E-01 -.804E-01 -.890E+00
   0.167E+00 0.686E+01 -.604E+02   -.132E+00 -.658E+01 0.599E+02   -.268E-01 -.258E+00 0.503E+00
   0.624E+01 0.113E+02 -.683E+02   -.627E+01 -.113E+02 0.675E+02   0.220E-01 -.352E-01 0.754E+00
   0.182E+01 -.240E+01 -.655E+02   -.179E+01 0.239E+01 0.643E+02   -.294E-01 0.133E-01 0.112E+01
   -.840E+01 -.997E+01 -.684E+02   0.844E+01 0.100E+02 0.676E+02   -.407E-01 -.407E-01 0.748E+00
   0.546E+01 0.990E+01 0.574E+02   -.493E+01 -.949E+01 -.559E+02   -.521E+00 -.396E+00 -.149E+01
   -.227E+01 -.491E+01 0.605E+02   0.199E+01 0.480E+01 -.590E+02   0.275E+00 0.113E+00 -.154E+01
   -.122E+02 -.387E+01 0.604E+02   0.123E+02 0.381E+01 -.590E+02   -.996E-01 0.750E-01 -.141E+01
   0.186E+01 -.274E+01 0.585E+02   -.704E+00 0.302E+01 -.549E+02   -.113E+01 -.285E+00 -.355E+01
   0.208E+01 -.250E+01 -.578E+02   -.933E+00 0.279E+01 0.543E+02   -.112E+01 -.283E+00 0.355E+01
   -.338E+01 -.289E+00 -.566E+02   0.221E+01 0.622E+00 0.531E+02   0.113E+01 -.334E+00 0.350E+01
   -.268E+01 0.803E+01 -.562E+02   0.222E+01 -.764E+01 0.549E+02   0.460E+00 -.368E+00 0.133E+01
   0.508E+01 0.946E+01 -.565E+02   -.456E+01 -.905E+01 0.550E+02   -.514E+00 -.395E+00 0.147E+01
   0.353E+00 0.704E+01 0.593E+02   -.320E+00 -.676E+01 -.588E+02   -.257E-01 -.262E+00 -.474E+00
   0.599E+01 0.107E+02 0.669E+02   -.603E+01 -.107E+02 -.662E+02   0.248E-01 -.328E-01 -.714E+00
   0.112E+01 -.274E+01 0.645E+02   -.109E+01 0.272E+01 -.634E+02   -.241E-01 0.174E-01 -.109E+01
   -.842E+01 -.995E+01 0.674E+02   0.846E+01 0.999E+01 -.667E+02   -.370E-01 -.408E-01 -.725E+00
   0.826E-01 -.138E+02 0.435E-01   -.818E-01 0.138E+02 -.411E-01   -.489E-04 -.435E-01 -.190E-02
   0.469E+00 0.133E+02 0.582E+00   -.443E+00 -.133E+02 -.555E+00   -.291E-01 0.478E-01 -.252E-01
   0.355E+00 0.132E+02 -.729E+00   -.329E+00 -.132E+02 0.705E+00   -.287E-01 0.470E-01 0.212E-01
   0.134E+00 -.137E+02 -.162E+00   -.133E+00 0.137E+02 0.161E+00   0.808E-03 -.430E-01 -.536E-03
   -.155E+02 0.450E+00 0.116E+00   0.156E+02 -.529E+00 -.118E+00   -.721E-01 0.805E-01 0.144E-02
   0.590E+01 -.121E+01 0.106E+00   -.595E+01 0.840E+00 -.105E+00   0.580E-01 0.362E+00 -.208E-03
   0.199E+02 0.110E+01 0.717E-01   -.198E+02 -.641E+00 -.726E-01   -.146E+00 -.464E+00 0.107E-02
   -.205E+02 0.106E+01 0.829E-01   0.203E+02 -.622E+00 -.838E-01   0.157E+00 -.451E+00 0.136E-02
   0.375E-01 -.142E+02 0.750E-01   -.407E-01 0.142E+02 -.749E-01   0.639E-02 -.535E-02 0.549E-03
   0.178E+01 0.148E+02 0.724E-01   -.240E+01 -.147E+02 -.731E-01   0.612E+00 -.148E+00 0.134E-02
   -.186E+00 0.149E+02 0.430E-01   0.163E+00 -.149E+02 -.431E-01   0.198E-01 -.131E-01 0.652E-03
   0.392E+00 -.135E+02 0.184E+00   -.402E+00 0.136E+02 -.185E+00   0.116E-01 -.628E-01 0.755E-03
   -.134E+02 -.305E+00 -.563E+00   0.135E+02 0.292E+00 0.582E+00   -.465E-01 0.125E-01 -.128E-01
   0.135E+02 0.282E+00 0.157E+01   -.136E+02 -.235E+00 -.157E+01   0.468E-01 -.458E-01 -.134E-01
   0.150E+02 -.439E+00 -.169E+01   -.150E+02 0.413E+00 0.164E+01   -.116E-01 0.303E-01 0.534E-01
   -.145E+02 -.721E-01 -.140E+01   0.145E+02 0.822E-01 0.135E+01   -.158E-01 -.985E-02 0.530E-01
   -.124E+00 -.142E+02 0.310E+00   0.139E+00 0.142E+02 -.267E+00   -.139E-01 -.307E-02 -.461E-01
   -.647E+00 0.151E+02 -.118E+01   0.610E+00 -.151E+02 0.113E+01   0.394E-01 0.597E-02 0.496E-01
   -.578E+00 0.152E+02 0.107E+01   0.540E+00 -.152E+02 -.102E+01   0.405E-01 0.550E-02 -.515E-01
   -.146E+00 -.142E+02 -.341E+00   0.161E+00 0.142E+02 0.300E+00   -.148E-01 -.358E-02 0.438E-01
   -.595E+01 -.608E+00 0.729E-01   0.599E+01 0.277E+00 -.729E-01   -.522E-01 0.331E+00 0.397E-03
   0.155E+02 0.106E+01 0.600E-01   -.155E+02 -.111E+01 -.605E-01   0.649E-01 0.529E-01 0.788E-03
   0.142E+02 -.952E+00 -.338E-02   -.142E+02 0.927E+00 0.365E-02   0.395E-01 0.226E-01 0.948E-03
   -.136E+02 -.742E+00 0.129E+00   0.136E+02 0.747E+00 -.128E+00   -.447E-01 -.734E-02 -.415E-03
   -.170E+01 0.144E+02 0.370E-01   0.233E+01 -.142E+02 -.367E-01   -.623E+00 -.160E+00 0.106E-03
   0.202E+00 0.190E+02 0.631E-01   -.173E+00 -.189E+02 -.627E-01   -.235E-01 -.168E-01 0.524E-03
   -.436E+00 -.134E+02 0.547E-01   0.446E+00 0.134E+02 -.542E-01   -.118E-01 -.478E-01 -.198E-03
   -.144E+02 -.546E-01 0.138E+01   0.144E+02 0.630E-01 -.133E+01   -.150E-01 -.679E-02 -.564E-01
[...]
   -.135E+01 -.309E+00 0.825E+02   0.135E+01 0.299E+00 -.829E+02   -.213E-01 0.174E-01 0.445E+00
   0.422E+01 -.441E+00 0.745E+02   -.427E+01 0.448E+00 -.749E+02   0.483E-01 -.284E-02 0.396E+00
   0.527E-01 -.236E+01 -.103E+03   -.466E-01 0.228E+01 0.104E+03   -.841E-02 0.838E-01 -.643E+00
   0.102E+02 0.164E+02 -.892E+02   -.103E+02 -.165E+02 0.897E+02   0.115E+00 0.135E+00 -.501E+00
   0.118E+01 0.909E-01 -.866E+02   -.117E+01 -.894E-01 0.871E+02   -.154E-01 0.419E-02 -.486E+00
   -.153E+02 -.177E+02 -.875E+02   0.154E+02 0.179E+02 0.880E+02   -.184E+00 -.162E+00 -.524E+00
   0.220E+00 -.225E+01 0.104E+03   -.216E+00 0.217E+01 -.105E+03   -.394E-02 0.806E-01 0.630E+00
   0.103E+02 0.163E+02 0.897E+02   -.105E+02 -.164E+02 -.902E+02   0.114E+00 0.138E+00 0.490E+00
   0.966E+00 0.120E+00 0.872E+02   -.964E+00 -.120E+00 -.877E+02   -.744E-02 0.597E-02 0.473E+00
   -.152E+02 -.176E+02 0.878E+02   0.153E+02 0.177E+02 -.883E+02   -.182E+00 -.163E+00 0.524E+00
   0.440E+01 -.212E+00 -.751E+02   -.445E+01 0.222E+00 0.754E+02   0.461E-01 -.102E-01 -.391E+00
   -.522E+01 -.156E+00 -.754E+02   0.524E+01 0.171E+00 0.758E+02   -.183E-01 -.183E-01 -.402E+00
   0.308E+01 -.288E+00 -.840E+02   -.312E+01 0.287E+00 0.844E+02   0.436E-01 -.560E-03 -.479E+00
   -.232E+01 0.907E-01 -.847E+02   0.235E+01 -.937E-01 0.852E+02   -.438E-01 0.310E-02 -.471E+00
   0.131E+00 0.414E+01 -.163E+00   0.364E-12 -.525E-14 0.767E-12   -.122E+00 -.406E+01 0.155E+00

 POSITION                                       TOTAL-FORCE (eV/Angst)
      7.49310     -7.48436      2.03921        -0.001318      0.005387      0.008756
      3.64999      0.19511      2.04611         0.007403     -0.007059      0.012942
      7.49216     -3.64800      2.03022         0.002412     -0.008796      0.003510
     11.33107     -3.63336      2.03918        -0.008052      0.009724      0.012414
      9.42996     -5.56054      4.38688         0.010063     -0.001358      0.003141
      5.56312      2.13181      4.38094        -0.005308      0.015446      0.002171
      9.28762     -1.69873      4.45321        -0.028566     -0.002566     -0.008594
     13.25553     -1.71286      4.37675        -0.005701      0.004293      0.004578
      5.57019     -9.40069      8.47429        -0.005709      0.002809     -0.009908
      1.73825     -1.71452      8.47070         0.009080      0.003468     -0.011798
      5.55967     -5.55602      8.46852        -0.010320     -0.000009     -0.006473
      9.43384     -5.55727      8.46394         0.010341     -0.001882     -0.008046
      7.49983     -7.47732     10.81583        -0.001431      0.005016     -0.001208
      3.65746      0.20271     10.80287         0.008937     -0.008127     -0.004964
      7.49977     -3.64056     10.81881         0.002684     -0.008455      0.004445
     11.33827     -3.62604     10.80365        -0.008326      0.009494     -0.005088
      7.49437      0.21999      2.03282         0.007132      0.013146      0.004957
     11.33307      0.20205      2.03981        -0.009871      0.002486      0.000290
      7.49484      4.04878      2.02774         0.004952      0.001766     -0.000771
      3.65212     -3.63727      2.04465         0.003811      0.004976     -0.004404
      9.42887      2.13411      4.37601         0.007533      0.015915      0.005054
      5.55626     -5.55926      4.38844        -0.009456     -0.000102      0.004293
      1.73483     -1.71832      4.38605         0.008653      0.005240      0.008904
      5.70126     -1.70227      4.45584         0.024460     -0.000848     -0.007265
      5.70506     -1.69896      8.39447         0.026478     -0.002226      0.007822
      9.29047     -1.69548      8.39211        -0.028114     -0.001491     -0.001071
      5.56608      2.13511      8.46367        -0.005950      0.012528     -0.004636
      1.74370     -5.55379      8.47467         0.007089      0.015027     -0.007663
      7.50174      0.22720     10.81030         0.007287      0.012829      0.000782
      3.65128     -7.48247     10.80942        -0.011566      0.002392      0.005426
     -0.18720     -3.63564     10.82162         0.004355     -0.000456      0.002403
      3.65906     -3.63005     10.81112         0.003749      0.005141      0.005006
      1.72326      0.47425     -0.00152         0.000685     -0.002456      0.000572
     13.25602     -0.07997     -0.00712        -0.003635     -0.001127      0.002466
      5.57808     -7.76062     12.85401        -0.002885     -0.000734     -0.002769
      1.73391      0.48497     12.85399         0.001434     -0.002731     -0.001109
      2.01105      0.20851      6.42661         0.005279      0.000803      0.000198
      5.39191      0.17124      6.42369         0.014010     -0.004779      0.000673
      9.05428     -3.60508      6.42381        -0.008698     -0.007359      0.000281
      5.93626     -3.60693      6.42666         0.009929     -0.013150      0.000537
     -0.19323     -1.43521      6.42968         0.003159      0.000912      0.000675
     11.35920     -2.02072      6.42078        -0.008790     -0.010118      0.000675
      7.49488     -5.85199      6.42688        -0.003745     -0.012678      0.000591
      3.65290      2.39647      6.42357         0.001339     -0.007996      0.000127
      3.91987      2.12244     -0.00041        -0.001169     -0.000472      0.006754
      7.20712      2.12414     -0.00746        -0.001752      0.000075     -0.003609
     11.05615     -1.72075     -0.00131        -0.004458      0.003365      0.005547
      7.77569     -1.72096      0.00084         0.005621     -0.000424      0.000348
      5.58039     -3.34810     12.84797         0.001605      0.005052     -0.003070
      5.57059     -0.08102      0.00255         0.002154     -0.003686      0.005678
      5.58126     -0.07036     12.84460         0.002414     -0.003668     -0.006093
      5.56990     -3.35878      0.00473        -0.000004      0.005489      0.002945
      9.60277      0.17538      6.42031        -0.014053     -0.001019      0.000424
      5.29146     -7.47787      6.43010        -0.005869      0.003593      0.000432
      1.44195     -3.64567      6.42998        -0.002099     -0.003619      0.001286
      5.86121      4.04659      6.42008        -0.000679     -0.003456      0.001030
      3.63372     -2.02478      6.42695         0.003586     -0.009077      0.000526
      7.49722      1.82814      6.42048         0.005030      0.009011      0.000961
      3.64920     -5.29154      6.42969        -0.001627     -0.006904      0.000308
      7.78631     -1.71037     12.84548         0.004715      0.000876     -0.000591
[...]
      5.56996     -5.56564      1.94409         0.004888     -0.001895     -0.000684
      1.72411     -1.71930      1.94675        -0.015228      0.005660     -0.002012
      5.56990     -1.72339      1.99340         0.003188      0.003348      0.000477
      7.49412      0.21468      4.45068        -0.002131      0.006370      0.001667
     11.35251      0.22667      4.46307        -0.008292     -0.009176      0.015159
      7.49553      4.05320      4.46072        -0.009716      0.004898     -0.003416
      3.61315     -3.66540      4.46385        -0.003959     -0.005554      0.009938
      7.49734      0.21815      8.39411         0.000106      0.004535     -0.008330
      3.66737     -7.46166      8.38777        -0.010462     -0.007810     -0.021682
     -0.19042     -3.63485      8.39025        -0.005389      0.004770     -0.004341
      3.61617     -3.66210      8.39275        -0.003569     -0.006360     -0.010145
      5.57772     -1.71532     10.85603         0.002466     -0.000399      0.002856
      9.42031     -1.71537     10.85220         0.000915     -0.003137      0.002036
      5.58043      2.13269     10.90124         0.005274     -0.002543      0.003564
      1.73250     -5.55722     10.91852        -0.007976     -0.000735      0.001485
    total drift:                                0.008436      0.077961     -0.008275

  FREE ENERGIE OF THE ION-ELECTRON SYSTEM (eV)
  free  energy   TOTEN  =      -585.30995148 eV

  energy  without entropy=     -585.28101204  energy(sigma->0) =     -585.29548176

 d Force = 0.1653072E-02[ 0.442E-03, 0.286E-02]  d Energy = 0.1134251E-02 0.519E-03
 d Force =-0.3813017E+01[-0.386E+01,-0.376E+01]  d Ewald  =-0.3813026E+01 0.890E-05

 reached required accuracy - stopping structural energy minimisation

 total charge

[...]

 magnetization (x)

# of ion       s       p       d       tot
    1        0.040   0.030   3.572   3.641
    2        0.041   0.030   3.570   3.641
    3        0.041   0.030   3.567   3.637
    4        0.041   0.030   3.569   3.639
    5        0.040   0.030   3.560   3.630
    6        0.040   0.030   3.557   3.626
    7        0.043   0.031   3.546   3.620
    8        0.040   0.030   3.573   3.642
    9        0.040   0.030   3.572   3.642
   10        0.040   0.030   3.573   3.642
   11        0.040   0.030   3.566   3.635
   12        0.040   0.030   3.559   3.629
   13        0.040   0.030   3.572   3.641
   14        0.041   0.030   3.570   3.640
   15        0.041   0.030   3.567   3.637
   16        0.041   0.030   3.568   3.639
   17        0.042   0.030   3.560   3.632
   18        0.041   0.030   3.570   3.640
   19        0.040   0.030   3.572   3.642
   20        0.041   0.030   3.565   3.636
   21        0.039   0.030   3.563   3.633
   22        0.040   0.030   3.566   3.636
   23        0.040   0.030   3.573   3.642
   24        0.043   0.031   3.548   3.622
   25        0.043   0.031   3.547   3.621
   26        0.043   0.031   3.546   3.620
   27        0.040   0.030   3.556   3.626
   28        0.039   0.030   3.563   3.632
   29        0.042   0.030   3.560   3.632
   30        0.041   0.030   3.570   3.640
   31        0.040   0.030   3.571   3.641
   32        0.041   0.030   3.565   3.636
   33        0.000   0.001   0.000   0.001
   34        0.000   0.001   0.000   0.001
   35        0.000   0.001   0.000   0.001
   36        0.000   0.001   0.000   0.001
   37        0.000   0.001   0.000   0.001
   38       -0.000   0.001   0.000   0.001
   39        0.000   0.001   0.000   0.001
   40        0.000   0.001   0.000   0.001
   41        0.000   0.001   0.000   0.001
   42        0.000   0.001   0.000   0.002
   43        0.000   0.001   0.000   0.001
   44       -0.000   0.001   0.000   0.001
   45        0.000   0.001   0.000   0.001
   46        0.000   0.001   0.000   0.001
   47       -0.000   0.001   0.000   0.001
   48        0.000   0.001   0.000   0.001
   49        0.000   0.001   0.000   0.001
   50        0.000   0.001   0.000   0.001
   51        0.000   0.001   0.000   0.001
   52        0.000   0.001   0.000   0.001
   53       -0.000   0.001   0.000   0.001
   54        0.000   0.001   0.000   0.001
   55        0.000   0.001   0.000   0.001
   56        0.000   0.001   0.000   0.001
   57        0.000   0.001   0.000   0.002
   58        0.000   0.001   0.000   0.001
   59       -0.000   0.001   0.000   0.001
   60        0.000   0.001   0.000   0.001
[...]
   97        0.016   0.063   0.000   0.079
   98        0.016   0.065   0.000   0.081
   99        0.015   0.054   0.000   0.069
  100        0.015   0.044   0.000   0.059
  101        0.015   0.060   0.000   0.075
  102        0.016   0.066   0.000   0.081
  103        0.015   0.057   0.000   0.072
  104        0.015   0.044   0.000   0.059
  105        0.015   0.060   0.000   0.075
  106        0.016   0.066   0.000   0.081
  107        0.015   0.057   0.000   0.072
  108        0.015   0.054   0.000   0.069
  109        0.015   0.054   0.000   0.070
  110        0.016   0.061   0.000   0.077
  111        0.016   0.062   0.000   0.077
tot          1.936   4.383 114.056 120.375