 vasp.6.2.0 18Jan21 (build May  3 2021 10:16:23) complex
 executed on        HPECrayEX_GCC date 2021.05.05  07:16:05

 INCAR:
   ALGO = all
   EDIFF = 1e-06
   EDIFFG = -0.02
   ENCUT = 520
   GGA = pe
   IBRION = 3
   IMAGES = 5
   IOPT = 7
   ISIF = 2
   ISMEAR = 0
   ISPIN = 2
   KPAR = 8
   LASPH = .TRUE.
   LCHARG = .TRUE.
   LDAU = .TRUE.
   LDAUJ = 0.0 0.0 0.0 0.0
   LDAUL = 2 -1 -1 -1
   LDAUTYPE = 2
   LDAUU = 4.0 0.0 0.0 0.0
   LMAXMIX = 4
   LORBIT = 10
   LREAL = .FALSE.
   LVHAR = .TRUE.
   LWAVE = .TRUE.
   MAGMOM = 5 5 5 5 5 5 5 5 5 5 5 5 5 5 5 5 5 5 5 5 5 5 5 5 5 5 5 5 5 5 5 5 0.6 0.6 0.6 0.6 0.6 0.6 0.6 0.6 0.6 0.6 0.6 0.6 0.6 0.6 0.6 0.6 0.6 0.6 0.6 0.6 0.6 0.6 0.6 0.6 0.6 0.6 0.6 0.6 0.6 0.6 0.6 0.6 0.6 0.6 0.6 0.6 0.6 0.6 0.6 0.6 0.6 0.6 0.6 0.6 0.6 0.6 0.6 0.6 0.6 0.6 0.6 0.6 0.6 0.6 0.6 0.6 0.6 0.6 0.6 0.6 0.6 0.6 0.6 0.6 0.6 0.6 0.6 0.6 0.6 0.6 0.6 0.6 0.6 0.6 0.6 0.6 0.6 0.6 0.6
   NCORE = 4
   NEDOS = 2000
   NELECT = 828
   NELM = 200
   NELMIN = 4
   NSW = 60
   NWRITE = 1
   POTIM = 0.0
   PREC = accurate
   SIGMA = 0.05
   SPRING = -5

 POTCAR:    PAW_PBE Fe_pv 02Aug2007
 POTCAR:    PAW_PBE Li_sv 10Sep2004
 POTCAR:    PAW_PBE O 08Apr2002
 POTCAR:    PAW_PBE S 06Sep2000
 POTCAR:    PAW_PBE Fe_pv 02Aug2007

 POTCAR:    PAW_PBE Li_sv 10Sep2004

 POTCAR:    PAW_PBE O 08Apr2002

 POTCAR:    PAW_PBE S 06Sep2000

  PAW_PBE Fe_pv 02Aug2007               :
  PAW_PBE Li_sv 10Sep2004               :
  PAW_PBE O 08Apr2002                   :
  PAW_PBE S 06Sep2000                   :

 POSCAR: # Compound: Fe32Li31O16S32. Old comment:
  positions in direct lattice
 exchange correlation table for  LEXCH =        8
   RHO(1)=    0.500       N(1)  =     2000
   RHO(2)=  100.500       N(2)  =     4000

 VTST: version 3.2, (02/03/18)

 CHAIN: initializing optimizer

 OPT: Using FIRE optimizer
 OPT: FIRE, Init
 OPT: FIRE, MAXMOVE       0.20000
 OPT: FIRE, TIMESTEP      0.10000
 OPT: FIRE, FTIMEMAX      1.00000
 OPT: FIRE, FTIMEINC      1.10000
 OPT: FIRE, FTIMEDEC      0.50000
 OPT: FIRE, FALPHADEC     0.99000
 OPT: FIRE, FALPHA        0.10000
 OPT: FIRE, FNMIN         5

 CHAIN: Read ICHAIN            0
 CHAIN: Running the NEB
 NEB:          SPRING     -5.000000
 NEB:          LCLIMB      T
 NEB:     LTANGENTOLD      F
 NEB:           LDNEB      F
 NEB:        LDNEBORG      F
 NEB:        LNEBCELL      F
 NEB:          EFIRST      0.000000
 NEB:           ELAST      0.000000

 POSCAR: # Compound: Fe32Li31O16S32. Old comment:
  positions in direct lattice

 POSCAR: # Compound: Fe32Li31O16S32. Old comment:
  positions in direct lattice

 ion  position               nearest neighbor table
   1  0.974  0.081  0.159-  73 2.04  84 2.43  80 2.71  97 2.72  98 2.72  83 2.73
   2  0.224  0.331  0.160-  68 2.05  85 2.43  99 2.71  98 2.72  81 2.73  80 2.73
   3  0.725  0.330  0.158-  79 2.03  86 2.41  82 2.70  80 2.70  99 2.73  97 2.74
   4  0.973  0.581  0.158-  66 2.04  87 2.42  83 2.71  82 2.71  81 2.73  80 2.73
   5  0.971  0.425  0.342-  70 2.03  80 2.44  87 2.68  86 2.70  85 2.71  84 2.78
   6  0.222  0.671  0.341-  67 2.04  81 2.44  87 2.66  85 2.70 100 2.73 102 2.73
   7  0.717  0.669  0.346-  72 1.99  82 2.46 100 2.66 101 2.75  86 2.75
   8  0.973  0.921  0.341-  77 2.04  83 2.44  84 2.71  87 2.71 101 2.72 102 2.73
   9  0.973  0.080  0.659-  77 2.04  92 2.44  88 2.71  91 2.71 105 2.72 106 2.73
  10  0.223  0.331  0.659-  64 2.04  93 2.44  88 2.72 107 2.72  89 2.72 106 2.72
  11  0.723  0.328  0.659-  75 2.04  94 2.44  90 2.67 105 2.71  88 2.72 107 2.72
  12  0.971  0.583  0.658-  70 2.03  95 2.44  91 2.68  90 2.70  89 2.71  88 2.78
  13  0.974  0.422  0.841-  66 2.04  88 2.43  95 2.71  94 2.72  93 2.72  92 2.73
  14  0.224  0.671  0.840-  71 2.05  89 2.43 108 2.71  93 2.72 110 2.73  95 2.73
  15  0.725  0.672  0.842-  76 2.03  90 2.41 109 2.70  95 2.71 108 2.73  94 2.74
  16  0.973  0.922  0.842-  73 2.04  91 2.42  92 2.71 109 2.71 110 2.73  95 2.73
  17  0.473  0.582  0.159-  65 2.04 100 2.42  96 2.70  81 2.71  82 2.73  99 2.74
  18  0.723  0.830  0.159-  76 2.04 101 2.42  97 2.70  96 2.72  83 2.73  82 2.74
  19  0.224  0.830  0.158-  71 2.05 102 2.44  81 2.71  96 2.71  83 2.72  98 2.72
  20  0.474  0.082  0.160-  74 2.05 103 2.43  99 2.71  98 2.72  97 2.72  96 2.73
  21  0.474  0.923  0.341-  78 2.04  96 2.45 103 2.65 101 2.71 100 2.72 102 2.72
  22  0.723  0.169  0.341-  75 2.04  97 2.44  86 2.67 101 2.71  84 2.72 103 2.73
  23  0.223  0.172  0.341-  64 2.04  98 2.44  84 2.72 103 2.72  85 2.72 102 2.72
  24  0.483  0.435  0.347-  69 1.98  99 2.47 100 2.61  86 2.62
  25  0.483  0.588  0.653-  69 1.98 108 2.47 104 2.61  90 2.62
  26  0.717  0.824  0.654-  72 1.99 109 2.46 104 2.66 105 2.75  90 2.75
  27  0.222  0.830  0.659-  67 2.04 110 2.44  91 2.66  89 2.70 104 2.73 106 2.73
  28  0.474  0.081  0.659-  78 2.04 111 2.45 107 2.65 105 2.71 104 2.72 106 2.72
  29  0.473  0.924  0.841-  74 2.04 104 2.42 111 2.70 110 2.71 109 2.73 108 2.74
  30  0.723  0.171  0.841-  79 2.04 105 2.42  94 2.70 111 2.72  92 2.73 109 2.74
  31  0.224  0.172  0.842-  68 2.05 106 2.44 110 2.71 111 2.71  92 2.72  93 2.72
  32  0.474  0.422  0.840-  65 2.05 107 2.43 108 2.71  93 2.72  94 2.72 111 2.73
  33  0.081  0.145  0.001-  68 1.94  73 1.95  80 2.55  92 2.55
  34  0.867  0.857  0.001-  73 1.95  76 1.95  83 2.53  95 2.56
  35  0.867  0.356  0.999-  66 1.95  79 1.95  92 2.53  80 2.56
  36  0.081  0.644  0.999-  71 1.94  66 1.95  95 2.55  83 2.55
  37  0.113  0.394  0.500-  64 1.95  70 1.97  89 2.55  85 2.55
  38  0.344  0.618  0.500-  69 1.92  67 1.96  89 2.68  85 2.68
  39  0.803  0.593  0.500-  72 1.90  70 2.04  86 2.43  90 2.43
  40  0.610  0.386  0.500-  69 1.92  75 1.96  86 2.61  90 2.61
  41  0.081  0.142  0.500-  64 1.94  77 1.95  84 2.56  88 2.56
  42  0.871  0.851  0.500-  72 1.89  77 1.95  91 2.53  87 2.53
  43  0.867  0.353  0.500-  75 1.93  70 1.94  88 2.54  84 2.54
  44  0.079  0.643  0.500-  67 1.96  70 1.96  87 2.55  91 2.55
  45  0.117  0.394  0.000-  68 1.94  66 1.94  81 2.55  93 2.55
  46  0.330  0.607  0.999-  71 1.94  65 1.95  93 2.54  81 2.55
  47  0.830  0.606  0.001-  66 1.94  76 1.94  94 2.55  82 2.57
  48  0.617  0.394  0.000-  65 1.94  79 1.95  94 2.54  82 2.57
  49  0.580  0.644  0.999-  65 1.94  76 1.94  96 2.55 108 2.57
  50  0.367  0.358  0.001-  68 1.94  65 1.94 111 2.55  99 2.58
  51  0.367  0.857  0.999-  71 1.94  74 1.94  96 2.55 108 2.58
  52  0.580  0.145  0.001-  74 1.94  79 1.94 111 2.55  99 2.57
  53  0.602  0.873  0.500-  72 1.92  78 1.96
  54  0.829  0.103  0.500-  77 1.93  75 1.95 105 2.54 101 2.54
  55  0.335  0.113  0.500-  64 1.95  78 1.95 102 2.60 106 2.60
  56  0.117  0.894  0.500-  77 1.93  67 1.94 106 2.55 102 2.55
  57  0.361  0.362  0.500-  69 1.88  64 1.93 103 2.62 107 2.62
  58  0.361  0.862  0.500-  78 1.91  67 1.92 100 2.60 104 2.60
  59  0.587  0.134  0.500-  78 1.93  75 1.94 103 2.61 107 2.61
  60  0.617  0.894  1.000-  74 1.94  76 1.95  97 2.54 109 2.57
[...]
  97  0.724  0.074  0.151-  22 2.44  60 2.54  61 2.55  18 2.70   1 2.72  20 2.72   3 2.74
  98  0.224  0.077  0.152-  23 2.44  62 2.54  63 2.55   2 2.72   1 2.72  20 2.72  19 2.72
  99  0.473  0.328  0.155-  24 2.47  52 2.57  50 2.58  20 2.71   2 2.71   3 2.73  17 2.74
 100  0.473  0.676  0.347-  17 2.42  58 2.60  24 2.61   7 2.66  21 2.72   6 2.73
 101  0.723  0.923  0.348-  18 2.42  54 2.54  21 2.71  22 2.71   8 2.72   7 2.75
 102  0.223  0.926  0.348-  19 2.44  56 2.55  55 2.60  21 2.72  23 2.72   8 2.73   6 2.73
 103  0.473  0.170  0.349-  20 2.43  59 2.61  57 2.62  21 2.65  23 2.72  22 2.73
 104  0.473  0.828  0.653-  29 2.42  58 2.60  25 2.61  26 2.66  28 2.72  27 2.73
 105  0.723  0.075  0.652-  30 2.42  54 2.54  28 2.71  11 2.71   9 2.72  26 2.75
 106  0.223  0.077  0.652-  31 2.44  56 2.55  55 2.60  28 2.72  10 2.72   9 2.73  27 2.73
 107  0.473  0.322  0.651-  32 2.43  59 2.61  57 2.62  28 2.65  10 2.72  11 2.72
 108  0.473  0.673  0.845-  25 2.47  49 2.57  51 2.58  32 2.71  14 2.71  15 2.73  29 2.74
 109  0.724  0.921  0.845-  26 2.46  61 2.57  60 2.57  15 2.70  16 2.71  29 2.73  30 2.74
 110  0.224  0.926  0.849-  27 2.44  63 2.55  62 2.55  29 2.71  31 2.71  14 2.73  16 2.73
 111  0.473  0.175  0.849-  28 2.45  52 2.55  50 2.55  29 2.70  31 2.71  30 2.72  32 2.73

  LATTYP: Found a base centered orthorhombic cell.
 ALAT       =    10.8749739061
 B/A-ratio  =     2.3644048249
 C/A-ratio  =     1.0000101723

  Lattice vectors:

 A1 = (   3.8335882400,   3.8349345400, -12.8627506400)
 A2 = (   3.8548230400,   3.8561790800,  12.8500725900)
 A3 = (   7.6911861600,  -7.6885056400,   0.0000000100)

Analysis of symmetry for initial positions (statically):
 Subroutine PRICEL returns:
 Original cell was already a primitive cell.

 Routine SETGRP: Setting up the symmetry group for a
 base centered orthorhombic supercell.

 Subroutine GETGRP returns: Found  1 space group operations
 (whereof  1 operations were pure point group operations)
 out of a pool of  8 trial point group operations.

The static configuration has the point symmetry C_1 .

Analysis of symmetry for dynamics (positions and initial velocities):
 Subroutine PRICEL returns:
 Original cell was already a primitive cell.

[...]

The dynamic configuration has the point symmetry C_1 .

Analysis of structural, dynamic, and magnetic symmetry:
 Subroutine PRICEL returns:
 Original cell was already a primitive cell.

 Routine SETGRP: Setting up the symmetry group for a
 base centered orthorhombic supercell.

 Subroutine GETGRP returns: Found  1 space group operations
 (whereof  1 operations were pure point group operations)
 out of a pool of  8 trial point group operations.

The overall configuration has the point symmetry C_1 .

 Subroutine INISYM returns: Found  1 space group operations
 (whereof  1 operations are pure point group operations),
 and found     1 'primitive' translations

                                     Primitive cell

  volume of cell :    1520.4808

  direct lattice vectors                    reciprocal lattice vectors
     7.691186160 -7.688505640  0.000000010     0.065032232 -0.065009382  0.000000006
     7.688411280  7.691113620 -0.012678050     0.065042145  0.065064822  0.038783628
    -3.833588240 -3.834934540 12.862750640     0.000064108  0.000064131  0.077782096

  length of vectors
    10.875084530 10.874973906 13.958992648     0.091953308  0.099840280  0.077782149

  position of ions in fractional coordinates (direct lattice)
     0.973591990  0.080812106  0.159072267
     0.224444607  0.330901718  0.160187302
     0.724572725  0.329518423  0.157667180
     0.973330162  0.580655433  0.158415492
     0.971391219  0.425421817  0.342235751
     0.221997043  0.670768287  0.341174452
     0.717174049  0.669447070  0.345910868
     0.972779021  0.920744114  0.341043979
     0.972781346  0.079711835  0.658955926
     0.223336313  0.331051551  0.658629356
     0.723414928  0.327722698  0.658967278
     0.971397573  0.583213394  0.657776062
     0.973576717  0.421752786  0.840921403
     0.224436392  0.670714657  0.839808518
     0.724510928  0.671815718  0.842331665
     0.973306982  0.922249283  0.841575775
     0.472845762  0.582178695  0.158619705
     0.723348343  0.830250487  0.159306366
[...]
   0.158E+02 -.593E+00 -.793E+00   -.158E+02 0.577E+00 0.749E+00   -.150E-01 0.175E-01 0.443E-01
   -.133E+02 -.734E+00 -.183E+01   0.133E+02 0.806E+00 0.176E+01   -.488E-01 -.712E-01 0.717E-01
   0.283E-01 -.149E+02 0.100E+01   -.481E-01 0.148E+02 -.963E+00   0.188E-01 0.115E-01 -.429E-01
   -.435E+00 0.150E+02 -.898E+00   0.419E+00 -.150E+02 0.853E+00   0.139E-01 0.359E-02 0.435E-01
   -.454E+00 0.150E+02 0.885E+00   0.438E+00 -.150E+02 -.841E+00   0.137E-01 0.328E-02 -.436E-01
   0.322E-01 -.149E+02 -.990E+00   -.524E-01 0.148E+02 0.949E+00   0.191E-01 0.117E-01 0.428E-01
   0.261E+01 -.173E+01 -.546E-02   -.255E+01 0.134E+01 0.582E-02   -.427E-01 0.381E+00 -.412E-03
   0.164E+02 -.715E+00 -.793E-02   -.164E+02 0.637E+00 0.788E-02   0.105E-01 0.858E-01 -.733E-05
   0.880E+01 -.206E+01 -.157E-01   -.885E+01 0.206E+01 0.157E-01   0.417E-01 -.141E-02 -.156E-04
   -.147E+02 -.762E-02 0.190E-01   0.147E+02 0.602E-01 -.190E-01   0.129E-01 -.499E-01 0.839E-04
   -.207E+01 0.913E+01 0.927E-02   0.270E+01 -.905E+01 -.997E-02   -.633E+00 -.101E+00 0.619E-03
   0.122E+01 0.137E+02 -.171E-01   -.112E+01 -.137E+02 0.170E-01   -.106E+00 -.267E-01 -.509E-04
   -.254E+01 -.995E+01 0.149E-01   0.244E+01 0.999E+01 -.151E-01   0.101E+00 -.183E-01 0.138E-03
   -.133E+02 -.740E+00 0.187E+01   0.133E+02 0.812E+00 -.180E+01   -.489E-01 -.712E-01 -.715E-01
[...]
   -.269E+01 0.346E+00 0.821E+02   0.269E+01 -.366E+00 -.826E+02   -.349E-02 0.219E-01 0.466E+00
   0.444E+01 -.336E+00 0.733E+02   -.446E+01 0.356E+00 -.737E+02   0.212E-01 -.173E-01 0.398E+00
   0.971E+00 -.362E+00 -.100E+03   -.926E+00 0.296E+00 0.101E+03   -.488E-01 0.712E-01 -.606E+00
   0.698E+01 0.101E+02 -.907E+02   -.712E+01 -.102E+02 0.912E+02   0.139E+00 0.128E+00 -.538E+00
   -.976E+00 -.109E+01 -.857E+02   0.101E+01 0.112E+01 0.861E+02   -.329E-01 -.309E-01 -.455E+00
   -.171E+02 -.227E+02 -.879E+02   0.173E+02 0.229E+02 0.884E+02   -.194E+00 -.187E+00 -.522E+00
   0.124E+01 -.136E+00 0.100E+03   -.120E+01 0.685E-01 -.101E+03   -.463E-01 0.736E-01 0.606E+00
   0.711E+01 0.103E+02 0.907E+02   -.725E+01 -.104E+02 -.912E+02   0.140E+00 0.130E+00 0.538E+00
   -.881E+00 -.942E+00 0.857E+02   0.910E+00 0.973E+00 -.861E+02   -.327E-01 -.303E-01 0.456E+00
   -.168E+02 -.225E+02 0.880E+02   0.170E+02 0.227E+02 -.885E+02   -.192E+00 -.185E+00 0.522E+00
   0.430E+01 -.583E+00 -.733E+02   -.433E+01 0.604E+00 0.737E+02   0.209E-01 -.188E-01 -.398E+00
   -.364E+01 -.181E+01 -.774E+02   0.366E+01 0.183E+01 0.778E+02   -.216E-01 -.177E-01 -.440E+00
   0.288E+01 0.205E+01 -.844E+02   -.291E+01 -.206E+01 0.849E+02   0.214E-01 0.688E-02 -.492E+00
   -.313E+01 -.202E+01 -.855E+02   0.318E+01 0.204E+01 0.860E+02   -.511E-01 -.276E-01 -.482E+00
   0.553E+01 0.706E+01 -.160E-01   -.258E-12 0.288E-12 0.284E-12   -.553E+01 -.706E+01 0.153E-01

 POSITION                                       TOTAL-FORCE (eV/Angst)
      7.49958     -7.47396      2.04508        -0.003181     -0.000795     -0.001633
      3.65626      0.20505      2.05625        -0.000389     -0.002026     -0.001703
      7.50187     -3.64116      2.02386        -0.002719     -0.003320      0.004354
     11.34308     -3.62508      2.03030        -0.005981      0.002460      0.003435
      9.42998     -5.50903      4.39670         0.002382     -0.025896     -0.010989
      5.55664      2.14375      4.37994        -0.003957      0.003139      0.000459
      9.33682     -1.69175      4.44088        -0.037612     -0.009668      0.006799
     13.25346     -1.70555      4.37509        -0.005839     -0.000529      0.000757
      5.56853     -9.39321      8.47498        -0.005924     -0.000486     -0.000956
      1.73807     -1.69677      8.46759        -0.000099     -0.000898     -0.000169
      5.55738     -5.56852      8.47198        -0.003207      0.005667     -0.001561
      9.43354     -5.50556      8.45342         0.002356     -0.026265      0.011105
      7.50682     -7.46648     10.81122        -0.003075     -0.000552      0.001557
      3.66343      0.21235     10.79374        -0.000479     -0.001892      0.001799
      7.50839     -3.63368     10.82618        -0.002807     -0.003923     -0.004387
     11.35026     -3.61754     10.81329        -0.006110      0.001885     -0.003548
      7.50469      0.23383      2.03290        -0.003142      0.001127      0.000704
     11.33600      0.21315      2.03859        -0.005945     -0.002157      0.002405
      7.49573      4.05569      2.02719        -0.001141      0.001295      0.001289
      3.65703     -3.62628      2.05502        -0.002902      0.001317     -0.000958
      9.42790      2.14604      4.37466         0.000574      0.000297      0.001742
      5.55421     -5.57213      4.38456        -0.003215      0.005663      0.001484
      1.73461     -1.70000      4.38866        -0.000189     -0.000987      0.000079
      5.73215     -1.69482      4.45695         0.003045     -0.000528      0.003047
      5.73441     -1.69215      8.39278         0.002797     -0.000782     -0.002909
      9.33973     -1.68844      8.40292        -0.037571     -0.009868     -0.006672
      5.56009      2.14731      8.46379        -0.003873      0.003158     -0.000432
      1.74286     -5.54192      8.47535         0.000484      0.000216     -0.001734
      7.51188      0.24105     10.81080        -0.003077      0.001055     -0.000748
      3.65446     -7.47045     10.81151        -0.005914     -0.002116     -0.002619
     -0.18580     -3.62799     10.82280        -0.000945      0.001115     -0.001476
      3.66411     -3.61906     10.80149        -0.002819      0.001204      0.000896
      1.72902      0.48690      0.00985        -0.002717     -0.001611     -0.003724
     13.25709     -0.08225     -0.00056        -0.002215      0.002995      0.000425
      5.57929     -7.76281     12.84751        -0.002099      0.002994     -0.000389
      1.73966      0.49752     12.84301        -0.002654     -0.001604      0.003811
      1.97941      0.24328      6.42660        -0.001844     -0.000101     -0.000090
      5.47980      0.18989      6.42367        -0.011883      0.002324      0.000081
      8.82046     -3.53569      6.42380         0.166910     -0.133404      0.000089
      5.74651     -3.63528      6.42624         0.070292      0.012249     -0.000110
     -0.20017     -1.45118      6.42945        -0.000559     -0.000156      0.000040
     11.33092     -2.06750      6.42064         0.000287      0.026739      0.000158
      7.46526     -5.86953      6.42719         0.000287     -0.007167     -0.000069
      3.63452      2.41762      6.42318         0.001450     -0.004428      0.000085
      3.93220      2.13004     -0.00126        -0.005505      0.000490      0.002540
      3.37998     -1.70001     12.84558        -0.004210      0.000348      0.002046
     11.04072     -1.71670      0.00215         0.002615      0.001680      0.000385
      7.77246     -1.71228     -0.00299         0.002000      0.001048      0.001844
      5.57947     -3.33422     12.84197        -0.001039      0.003378     -0.001438
      5.57557     -0.07068      0.00800        -0.001957     -0.001046     -0.001105
      5.58619     -0.06026     12.83933        -0.002069     -0.001017      0.001166
      5.56890     -3.34484      0.01117        -0.001090      0.003355      0.001395
      9.42706      0.16423      6.42024         0.012116     -0.002980     -0.000040
      5.25229     -7.50469      6.43024         0.002759      0.008240     -0.000055
      1.52633     -3.62801      6.42985        -0.010640      0.000303     -0.000013
      5.86126      4.06063      6.42006        -0.010299      0.002738      0.000098
      3.64166     -1.90885      6.42633        -0.002695     -0.022115     -0.000076
      7.49003      1.94151      6.42044        -0.000971     -0.001069     -0.000049
      3.62350     -5.39796      6.42964         0.005065      0.023441     -0.000032
      7.78318     -1.70169     12.84980         0.001893      0.000923     -0.001930
[...]
      5.55830     -5.57383      1.94158         0.001446      0.003795      0.001969
      1.72850     -1.70937      1.95184        -0.003159      0.000860     -0.000509
      5.56831     -1.71039      1.99571        -0.002207      0.002834      0.002769
      7.49726      0.23025      4.45780        -0.003323      0.004267      0.000904
     11.32065      0.20872      4.46065         0.000157      0.002254      0.002471
      7.50044      4.06526      4.46493        -0.002914      0.001561      0.000560
      3.61047     -3.66457      4.48349        -0.001326      0.001558     -0.003278
      7.50038      0.23333      8.38593        -0.003569      0.004190     -0.000970
      3.63540     -7.47912      8.38949         0.000206      0.002178     -0.002632
     -0.18472     -3.62268      8.38505        -0.003025      0.001649     -0.000707
      3.61385     -3.66119      8.37304        -0.001357      0.001770      0.003294
      5.57558     -1.70318     10.85441        -0.002320      0.002745     -0.002871
      9.41118     -1.71822     10.85945        -0.000870      0.003163     -0.005067
      5.58859      2.14183     10.90258        -0.003244      0.000797     -0.001309
      1.73165     -5.54651     10.92083        -0.001866      0.000282     -0.000760
    total drift:                               -0.000354     -0.003168     -0.000634

  FREE ENERGIE OF THE ION-ELECTRON SYSTEM (eV)
  free  energy   TOTEN  =      -585.27142606 eV

  energy  without entropy=     -585.24265819  energy(sigma->0) =     -585.25704213

 NEB: the previous image is higher in energy: F
 NEB: the next image is higher in energy    : T
 NEB: only next energy greater

 NEB: Tangent
      0.01050      0.00008      0.00713
     -0.00207      0.00162      0.00687
      0.00838      0.01270     -0.01933
      0.02068     -0.01378     -0.00918
     -0.00953      0.11044      0.04911
      0.01156     -0.01960      0.00070
      0.15540      0.04502     -0.03186
      0.02435      0.00139     -0.00127
      0.02467      0.00096      0.00120
      0.00357     -0.00064     -0.00134
      0.01614     -0.02011      0.00676
     -0.00999      0.11057     -0.04941
      0.01048      0.00011     -0.00724
     -0.00216      0.00158     -0.00688
      0.00871      0.01367      0.01941
      0.02025     -0.01324      0.00912
      0.00594     -0.00766      0.00185
      0.02380      0.00846     -0.00491
      0.00132     -0.00785     -0.00077
      0.00943     -0.00501      0.00217
     -0.00120     -0.00091     -0.00417
      0.01623     -0.01981     -0.00654
      0.00353     -0.00039      0.00138
     -0.01817      0.00019     -0.01339
     -0.01741      0.00096      0.01321
      0.15526      0.04502      0.03146
      0.01102     -0.02002     -0.00061
     -0.00071     -0.00089      0.00421
      0.00576     -0.00742     -0.00182
      0.02351      0.00876      0.00480
      0.00111     -0.00807      0.00076
      0.00956     -0.00489     -0.00225
      0.00748     -0.00172      0.00895
      0.01084     -0.01018     -0.00310
      0.01081     -0.01002      0.00303
      0.00749     -0.00168     -0.00905
      0.00903     -0.00112      0.00004
      0.08982     -0.01500     -0.00023
     -0.67260      0.52876     -0.00000
     -0.26850     -0.04941      0.00083
      0.00707     -0.02305     -0.00004
     -0.00537     -0.06695      0.00011
      0.00652      0.03272     -0.00030
     -0.00903      0.01691      0.00003
      0.01136     -0.00591     -0.00948
      0.00938     -0.00366     -0.00272
     -0.00489     -0.00876      0.00427
     -0.00605     -0.00243     -0.00631
      0.00302     -0.01569      0.01008
      0.00340      0.00096      0.00108
      0.00337      0.00097     -0.00118
      0.00299     -0.01558     -0.00998
     -0.08074      0.01907      0.00015
      0.02328     -0.02621      0.00005
      0.05983     -0.00020      0.00017
      0.00124     -0.00780      0.00001
      0.01843      0.09066      0.00021
      0.00261      0.05564      0.00044
     -0.01294     -0.10319     -0.00016
     -0.00598     -0.00233      0.00646
[...]
     -0.00488     -0.01574     -0.01134
      0.00908     -0.00879      0.00368
      0.01020     -0.01113     -0.01339
      0.01269     -0.01089     -0.00025
      0.00184     -0.00535     -0.00801
      0.00817     -0.00923      0.00208
      0.00758     -0.00498      0.01197
      0.01289     -0.01078      0.00023
      0.00180     -0.00546      0.00799
      0.00815     -0.00924     -0.00209
      0.00744     -0.00517     -0.01202
      0.01033     -0.01106      0.01324
      0.00443     -0.00975      0.01509
      0.00667     -0.00490      0.00130
      0.00729     -0.00225      0.00291

 NEB: forces: par spring, perp REAL, dneb     0.007914    0.031813    0.000000
 NEB: distance to prev, next image, angle between     0.488158    0.489740  134.651064
 NEB: projections on to tangent (spring, REAL)     0.007914   -0.246295

 stress matrix after NEB project (eV)
    -11.86906      0.11865     -0.00756
      0.11859    -11.38649     -0.00412
     -0.00752     -0.00411    -16.06462
  FORCES: max atom, RMS     0.013078    0.003112
  FORCE total and by dimension    0.032783    0.013074
  Stress total and by dimension   22.991895   16.064625
 OPT: skip step - force has converged

 reached required accuracy - stopping structural energy minimisation
 writing wavefunctions

 total charge

[...]

 magnetization (x)

# of ion       s       p       d       tot
    1        0.040   0.030   3.571   3.641
    2        0.041   0.030   3.571   3.641
    3        0.041   0.030   3.564   3.635
    4        0.041   0.030   3.567   3.637
    5        0.040   0.030   3.558   3.629
    6        0.040   0.030   3.557   3.627
    7        0.043   0.031   3.549   3.623
    8        0.040   0.030   3.572   3.642
    9        0.040   0.030   3.572   3.642
   10        0.040   0.030   3.571   3.641
   11        0.039   0.030   3.566   3.635
   12        0.040   0.030   3.558   3.629
   13        0.040   0.030   3.571   3.641
   14        0.041   0.030   3.571   3.641
   15        0.041   0.030   3.564   3.635
   16        0.041   0.030   3.567   3.637
   17        0.041   0.030   3.564   3.635
   18        0.041   0.030   3.568   3.639
   19        0.040   0.030   3.572   3.642
   20        0.041   0.030   3.569   3.640
   21        0.039   0.030   3.563   3.632
   22        0.039   0.030   3.566   3.635
   23        0.040   0.030   3.571   3.641
   24        0.042   0.032   3.545   3.619
   25        0.042   0.032   3.545   3.619
   26        0.043   0.031   3.549   3.623
   27        0.040   0.030   3.557   3.626
   28        0.039   0.030   3.563   3.632
   29        0.041   0.030   3.564   3.635
   30        0.041   0.030   3.568   3.639
   31        0.040   0.030   3.572   3.642
   32        0.041   0.030   3.569   3.640
   33        0.000   0.001   0.000   0.001
   34        0.000   0.001   0.000   0.001
   35        0.000   0.001   0.000   0.001
   36        0.000   0.001   0.000   0.001
   37        0.000   0.001   0.000   0.001
   38       -0.000   0.001   0.000   0.001
   39        0.000   0.001   0.000   0.001
   40       -0.000   0.001   0.000   0.001
   41        0.000   0.001   0.000   0.001
   42        0.000   0.001   0.000   0.001
   43        0.000   0.001   0.000   0.001
   44       -0.000   0.001   0.000   0.001
   45        0.000   0.001   0.000   0.001
   46        0.000   0.001   0.000   0.001
   47       -0.000   0.001   0.000   0.001
   48        0.000   0.001   0.000   0.001
   49        0.000   0.001   0.000   0.001
   50        0.000   0.001   0.000   0.001
   51        0.000   0.001   0.000   0.001
   52        0.000   0.001   0.000   0.001
   53       -0.000   0.001   0.000   0.001
   54        0.000   0.001   0.000   0.001
   55       -0.000   0.001   0.000   0.001
   56        0.000   0.001   0.000   0.001
   57        0.000   0.001   0.000   0.001
   58        0.000   0.001   0.000   0.001
   59       -0.000   0.001   0.000   0.001
   60        0.000   0.001   0.000   0.001
[...]
   97        0.016   0.064   0.000   0.080
   98        0.016   0.065   0.000   0.081
   99        0.015   0.054   0.000   0.069
  100        0.015   0.046   0.000   0.062
  101        0.016   0.061   0.000   0.076
  102        0.016   0.065   0.000   0.081
  103        0.015   0.057   0.000   0.072
  104        0.015   0.046   0.000   0.062
  105        0.016   0.061   0.000   0.076
  106        0.016   0.065   0.000   0.081
  107        0.015   0.057   0.000   0.072
  108        0.015   0.054   0.000   0.069
  109        0.015   0.055   0.000   0.070
  110        0.016   0.062   0.000   0.078
  111        0.016   0.062   0.000   0.078
tot          1.936   4.384 114.057 120.376