 vasp.6.2.0 18Jan21 (build Feb  9 2021 11:43:09) complex
 executed on       CrayXC_GCC_OMP date 2021.05.02  09:40:15

 INCAR:
   ALGO = all
   EDIFF = 0.000111
   EDIFFG = -0.03
   ENCUT = 520
   GGA = pe
   IBRION = 2
   ISIF = 2
   ISMEAR = 0
   ISPIN = 2
   KPAR = 8
   LASPH = .TRUE.
   LDAU = .TRUE.
   LDAUJ = 0.0 0.0 0.0 0.0
   LDAUL = 2 -1 -1 -1
   LDAUTYPE = 2
   LDAUU = 4.0 0.0 0.0 0.0
   LMAXMIX = 4
   LORBIT = 10
   LREAL = .FALSE.
   LVHAR = .TRUE.
   LWAVE = .FALSE.
   MAGMOM = 5 5 5 5 5 5 5 5 5 5 5 5 5 5 5 5 5 5 5 5 5 5 5 5 5 5 5 5 5 5 5 5 0.6 0.6 0.6 0.6 0.6 0.6 0.6 0.6 0.6 0.6 0.6 0.6 0.6 0.6 0.6 0.6 0.6 0.6 0.6 0.6 0.6 0.6 0.6 0.6 0.6 0.6 0.6 0.6 0.6 0.6 0.6 0.6 0.6 0.6 0.6 0.6 0.6 0.6 0.6 0.6 0.6 0.6 0.6 0.6 0.6 0.6 0.6 0.6 0.6 0.6 0.6 0.6 0.6 0.6 0.6 0.6 0.6 0.6 0.6 0.6 0.6 0.6 0.6 0.6 0.6 0.6 0.6 0.6 0.6 0.6 0.6 0.6 0.6 0.6 0.6 0.6 0.6 0.6 0.6
   NCORE = 8
   NEDOS = 2000
   NELECT = 828
   NELM = 200
   NELMIN = 4
   NSW = 60
   NWRITE = 1
   PREC = accurate
   SIGMA = 0.05

 POTCAR:    PAW_PBE Fe_pv 02Aug2007
 POTCAR:    PAW_PBE Li_sv 10Sep2004
 POTCAR:    PAW_PBE O 08Apr2002
 POTCAR:    PAW_PBE S 06Sep2000
 POTCAR:    PAW_PBE Fe_pv 02Aug2007

 POTCAR:    PAW_PBE Li_sv 10Sep2004

 POTCAR:    PAW_PBE O 08Apr2002

 POTCAR:    PAW_PBE S 06Sep2000

  PAW_PBE Fe_pv 02Aug2007               :
  PAW_PBE Li_sv 10Sep2004               :
  PAW_PBE O 08Apr2002                   :
  PAW_PBE S 06Sep2000                   :

 POSCAR: # Compound: Fe32Li31O16S32. Old comment:
  positions in direct lattice
 exchange correlation table for  LEXCH =        8
   RHO(1)=    0.500       N(1)  =     2000
   RHO(2)=  100.500       N(2)  =     4000

 ion  position               nearest neighbor table
   1  0.974  0.080  0.159-  73 2.04  84 2.42  80 2.72  97 2.72  98 2.72  83 2.72
   2  0.223  0.329  0.159-  68 2.04  85 2.42  80 2.71  98 2.72  81 2.72  99 2.73
   3  0.723  0.328  0.159-  79 2.04  86 2.42  97 2.70  99 2.71  80 2.73  82 2.74
   4  0.975  0.579  0.158-  66 2.04  87 2.42  81 2.71  83 2.72  80 2.72  82 2.72
   5  0.964  0.431  0.347-  70 1.98  80 2.47  86 2.62  87 2.66
   6  0.225  0.670  0.341-  67 2.04  81 2.44 100 2.69  87 2.71  85 2.72 102 2.73
   7  0.732  0.664  0.347-  72 1.98  82 2.47  86 2.62  87 2.66
   8  0.973  0.922  0.341-  77 2.04  83 2.44  84 2.68  87 2.71 101 2.72 102 2.73
   9  0.973  0.080  0.659-  77 2.04  92 2.44  88 2.68  91 2.71 105 2.72 106 2.73
  10  0.223  0.330  0.659-  64 2.04  93 2.44  89 2.71  88 2.72 106 2.72 107 2.72
  11  0.724  0.328  0.659-  75 2.05  94 2.44 105 2.66  88 2.71  90 2.73 107 2.73
  12  0.964  0.584  0.653-  70 1.98  95 2.47  90 2.62  91 2.67
  13  0.974  0.421  0.841-  66 2.04  88 2.42  95 2.72  94 2.72  93 2.72  92 2.72
  14  0.223  0.670  0.841-  71 2.04  89 2.42  95 2.71  93 2.72 110 2.72 108 2.73
  15  0.723  0.669  0.841-  76 2.04  90 2.42  94 2.70 108 2.71  95 2.73 109 2.74
  16  0.975  0.921  0.842-  73 2.04  91 2.42 110 2.71  92 2.72  95 2.72 109 2.72
  17  0.475  0.580  0.159-  65 2.04 100 2.42  82 2.72  96 2.72  99 2.73  81 2.73
  18  0.724  0.829  0.159-  76 2.04 101 2.42  82 2.71  96 2.72  83 2.72  97 2.73
  19  0.224  0.829  0.159-  71 2.05 102 2.43  83 2.72  98 2.72  81 2.72  96 2.72
  20  0.474  0.079  0.159-  74 2.04 103 2.43  96 2.72  97 2.72  99 2.72  98 2.72
  21  0.474  0.920  0.341-  78 2.04  96 2.44 101 2.71 100 2.72 103 2.72 102 2.72
  22  0.724  0.169  0.341-  75 2.05  97 2.44 101 2.66  84 2.71  86 2.73 103 2.73
  23  0.223  0.171  0.341-  64 2.04  98 2.44  85 2.71  84 2.72 102 2.72 103 2.72
  24  0.473  0.421  0.341-  69 2.04  99 2.44  85 2.66 100 2.71  86 2.72 103 2.72
  25  0.473  0.580  0.659-  69 2.04 108 2.44  89 2.66 104 2.71  90 2.72 107 2.73
  26  0.732  0.817  0.653-  72 1.98 109 2.47  90 2.62  91 2.66
  27  0.225  0.828  0.659-  67 2.04 110 2.44 104 2.69  91 2.71  89 2.72 106 2.73
  28  0.474  0.079  0.659-  78 2.04 111 2.44 105 2.71 104 2.72 107 2.72 106 2.72
  29  0.475  0.920  0.841-  74 2.04 104 2.42 109 2.72 111 2.72 108 2.73 110 2.73
  30  0.724  0.170  0.841-  79 2.04 105 2.42 109 2.71 111 2.72  92 2.72  94 2.73
  31  0.224  0.171  0.841-  68 2.05 106 2.43 110 2.72  92 2.72  93 2.72 111 2.72
  32  0.474  0.420  0.841-  65 2.04 107 2.43 111 2.72  94 2.72  93 2.72 108 2.72
  33  0.081  0.143  0.001-  68 1.94  73 1.94  92 2.55  80 2.58
  34  0.868  0.856  1.000-  76 1.94  73 1.94  83 2.54  95 2.58
  35  0.868  0.357  0.000-  79 1.94  66 1.94  92 2.54  80 2.58
  36  0.081  0.643  0.999-  71 1.94  66 1.94  83 2.55  95 2.58
  37  0.120  0.394  0.500-  70 1.88  64 1.94  85 2.56  89 2.56
  38  0.332  0.607  0.500-  67 1.95  69 1.95  89 2.55  85 2.55
  39  0.590  0.639  0.500-  72 1.92  69 1.95 104 2.63 100 2.63
  40  0.619  0.394  0.500-  75 1.93  69 1.93  90 2.55  86 2.55
  41  0.080  0.143  0.500-  64 1.95  77 1.96  84 2.54  88 2.54
  42  0.871  0.849  0.500-  72 1.92  77 1.97  87 2.52  91 2.52
  43  0.863  0.365  0.500-  70 1.92  75 1.95  88 2.63  84 2.63
  44  0.073  0.647  0.500-  70 1.92  67 1.97  91 2.52  87 2.52
  45  0.117  0.393  1.000-  68 1.94  66 1.94  93 2.54  81 2.55
  46  0.331  0.607  0.000-  71 1.95  65 1.95  93 2.55  81 2.55
  47  0.831  0.607  0.001-  66 1.94  76 1.94  94 2.54  82 2.57
  48  0.618  0.393  0.001-  65 1.94  79 1.94  94 2.55  82 2.58
  49  0.581  0.643  0.000-  65 1.94  76 1.94 108 2.54  96 2.55
  50  0.367  0.357  0.001-  65 1.94  68 1.95  99 2.55 111 2.55
  51  0.367  0.857  0.999-  74 1.94  71 1.95 108 2.55  96 2.55
  52  0.581  0.143  1.000-  74 1.94  79 1.94  99 2.54 111 2.55
  53  0.619  0.896  0.500-  72 1.88  78 1.94 101 2.56 105 2.56
  54  0.831  0.108  0.500-  77 1.95  75 1.95 101 2.55 105 2.55
  55  0.331  0.107  0.500-  64 1.94  78 1.94 102 2.55 106 2.55
  56  0.118  0.894  0.500-  77 1.94  67 1.94 106 2.55 102 2.55
  57  0.368  0.356  0.500-  64 1.95  69 1.95 107 2.55 103 2.55
  58  0.367  0.856  0.500-  78 1.95  67 1.96 100 2.54 104 2.54
  59  0.581  0.144  0.500-  75 1.95  78 1.95 107 2.55 103 2.55
  60  0.618  0.893  0.999-  74 1.94  76 1.94  97 2.55 109 2.58
[...]
  97  0.724  0.075  0.151-  22 2.44  61 2.54  60 2.55   3 2.70  20 2.72   1 2.72  18 2.73
  98  0.224  0.075  0.151-  23 2.44  63 2.54  62 2.55  19 2.72  20 2.72   2 2.72   1 2.72
  99  0.474  0.325  0.151-  24 2.44  52 2.54  50 2.55   3 2.71  20 2.72  17 2.73   2 2.73
 100  0.472  0.673  0.348-  17 2.42  58 2.54  39 2.63   6 2.69  24 2.71  21 2.72
 101  0.723  0.928  0.347-  18 2.42  54 2.55  53 2.56  22 2.66  21 2.71   8 2.72
 102  0.224  0.924  0.348-  19 2.43  56 2.55  55 2.55  23 2.72  21 2.72   6 2.73   8 2.73
 103  0.474  0.173  0.348-  20 2.43  59 2.55  57 2.55  21 2.72  23 2.72  24 2.72  22 2.73
 104  0.472  0.826  0.652-  29 2.42  58 2.54  39 2.63  27 2.69  25 2.71  28 2.72
 105  0.723  0.081  0.653-  30 2.42  54 2.55  53 2.56  11 2.66  28 2.71   9 2.72
 106  0.224  0.076  0.652-  31 2.43  56 2.55  55 2.55  10 2.72  28 2.72  27 2.73   9 2.73
 107  0.474  0.326  0.652-  32 2.43  59 2.55  57 2.55  28 2.72  10 2.72  25 2.73  11 2.73
 108  0.474  0.674  0.849-  25 2.44  49 2.54  51 2.55  15 2.71  32 2.72  29 2.73  14 2.73
 109  0.724  0.922  0.845-  26 2.47  61 2.57  60 2.58  30 2.71  29 2.72  16 2.72  15 2.74
 110  0.224  0.924  0.848-  27 2.44  63 2.55  62 2.55  16 2.71  31 2.72  14 2.72  29 2.73
 111  0.474  0.174  0.849-  28 2.44  52 2.55  50 2.55  32 2.72  31 2.72  29 2.72  30 2.72

  LATTYP: Found a base centered orthorhombic cell.
 ALAT       =    10.8749739061
 B/A-ratio  =     2.3644048249
 C/A-ratio  =     1.0000101723

  Lattice vectors:

 A1 = (   3.8335882400,   3.8349345400, -12.8627506400)
 A2 = (   3.8548230400,   3.8561790800,  12.8500725900)
 A3 = (   7.6911861600,  -7.6885056400,   0.0000000100)

Analysis of symmetry for initial positions (statically):
 Subroutine PRICEL returns:
 Original cell was already a primitive cell.

 Routine SETGRP: Setting up the symmetry group for a
 base centered orthorhombic supercell.

 Subroutine GETGRP returns: Found  1 space group operations
 (whereof  1 operations were pure point group operations)
 out of a pool of  8 trial point group operations.

The static configuration has the point symmetry C_1 .

Analysis of symmetry for dynamics (positions and initial velocities):
 Subroutine PRICEL returns:
 Original cell was already a primitive cell.

[...]

The dynamic configuration has the point symmetry C_1 .

Analysis of structural, dynamic, and magnetic symmetry:
 Subroutine PRICEL returns:
 Original cell was already a primitive cell.

 Routine SETGRP: Setting up the symmetry group for a
 base centered orthorhombic supercell.

 Subroutine GETGRP returns: Found  1 space group operations
 (whereof  1 operations were pure point group operations)
 out of a pool of  8 trial point group operations.

The overall configuration has the point symmetry C_1 .

 Subroutine INISYM returns: Found  1 space group operations
 (whereof  1 operations are pure point group operations),
 and found     1 'primitive' translations

                                     Primitive cell

  volume of cell :    1520.4808

  direct lattice vectors                    reciprocal lattice vectors
     7.691186160 -7.688505640  0.000000010     0.065032232 -0.065009382  0.000000006
     7.688411280  7.691113620 -0.012678050     0.065042145  0.065064822  0.038783628
    -3.833588240 -3.834934540 12.862750640     0.000064108  0.000064131  0.077782096

  length of vectors
    10.875084530 10.874973906 13.958992648     0.091953308  0.099840280  0.077782149

  position of ions in fractional coordinates (direct lattice)
     0.973890740  0.080045430  0.159366460
     0.223087130  0.329454420  0.159217090
     0.723002390  0.327854040  0.158575880
     0.974512040  0.579465000  0.158117250
     0.964269050  0.430778220  0.346777660
     0.224961770  0.669598130  0.341349420
     0.731676950  0.663581470  0.346750660
     0.972757640  0.921571970  0.341117870
     0.972747140  0.080447750  0.658874320
     0.223451730  0.329576790  0.658842130
     0.724387180  0.328138770  0.659076390
     0.964281070  0.583976710  0.653237410
     0.973884480  0.420664920  0.840634390
     0.223090150  0.670233320  0.840783990
     0.723001570  0.669276070  0.841425670
     0.974500840  0.921312260  0.841880090
     0.474606150  0.579903590  0.159437370
     0.723915760  0.828868720  0.158993800
     0.223867930  0.829209250  0.158640920
     0.474106460  0.078966290  0.158508400
     0.474414990  0.920074310  0.341138890
     0.724395590  0.169038380  0.340924620
     0.223446450  0.170729650  0.341154920
     0.472905750  0.420693940  0.341151100
     0.472911920  0.579567510  0.658851590
     0.731667010  0.816896990  0.653265250
     0.224942610  0.828270590  0.658656430
     0.474407960  0.078959020  0.658855890
     0.474603970  0.920448260  0.840563150
     0.723927270  0.169868050  0.841007380
     0.223870840  0.170555400  0.841360470
     0.474111990  0.420441840  0.841493900
     0.080831070  0.143415970  0.000609450
     0.867609490  0.856164410  0.999650590
     0.867609260  0.356516370  0.000348790
     0.080833600  0.642800450  0.999385530
     0.119774900  0.394270600  0.499996700
     0.331959900  0.607384930  0.500001880
     0.589549120  0.638880050  0.500002810
[...]
   0.103E+02 -.835E+01 0.722E+02   -.104E+02 0.842E+01 -.713E+02   0.898E-01 -.691E-01 -.902E+00
   -.755E+01 -.107E+00 0.601E+02   0.725E+01 0.756E-01 -.596E+02   0.288E+00 0.283E-01 -.483E+00
   0.456E+01 0.268E+00 0.644E+02   -.447E+01 -.287E+00 -.633E+02   -.862E-01 0.146E-01 -.103E+01
   -.936E+01 0.652E+01 -.725E+02   0.943E+01 -.654E+01 0.716E+02   -.607E-01 0.134E-01 0.874E+00
   0.104E+02 0.892E+01 -.698E+02   -.105E+02 -.896E+01 0.690E+02   0.461E-01 0.388E-01 0.763E+00
   0.706E+00 0.315E+00 -.670E+02   -.724E+00 -.301E+00 0.659E+02   0.135E-01 -.138E-01 0.113E+01
   0.238E+01 -.504E+00 -.652E+02   -.238E+01 0.485E+00 0.641E+02   -.582E-02 0.182E-01 0.112E+01
   0.442E+01 0.145E+02 0.593E+02   -.434E+01 -.146E+02 -.579E+02   -.874E-01 0.846E-01 -.142E+01
   -.991E+01 -.477E+01 0.564E+02   0.949E+01 0.423E+01 -.549E+02   0.413E+00 0.540E+00 -.149E+01
   0.279E+01 -.143E+02 0.596E+02   -.275E+01 0.144E+02 -.582E+02   -.432E-01 -.781E-01 -.140E+01
   -.100E+02 0.293E+01 0.561E+02   0.963E+01 -.244E+01 -.547E+02   0.402E+00 -.489E+00 -.134E+01
   -.979E+01 0.295E+01 -.559E+02   0.938E+01 -.246E+01 0.546E+02   0.400E+00 -.489E+00 0.134E+01
   0.150E+01 -.483E+01 -.566E+02   -.180E+01 0.363E+01 0.531E+02   0.301E+00 0.118E+01 0.354E+01
   0.684E+01 -.128E+01 -.583E+02   -.668E+01 0.102E+01 0.569E+02   -.164E+00 0.263E+00 0.140E+01
   0.416E+01 0.142E+02 -.590E+02   -.408E+01 -.143E+02 0.575E+02   -.834E-01 0.879E-01 0.141E+01
   -.904E+01 0.672E+01 0.721E+02   0.911E+01 -.674E+01 -.712E+02   -.625E-01 0.111E-01 -.871E+00
   0.104E+02 0.905E+01 0.696E+02   -.104E+02 -.909E+01 -.689E+02   0.472E-01 0.381E-01 -.764E+00
   0.954E+00 0.229E+00 0.670E+02   -.968E+00 -.216E+00 -.658E+02   0.112E-01 -.130E-01 -.113E+01
   0.234E+01 -.680E+00 0.652E+02   -.233E+01 0.660E+00 -.641E+02   -.527E-02 0.188E-01 -.112E+01
   0.427E+00 -.151E+02 -.142E+01   -.400E+00 0.151E+02 0.137E+01   -.274E-01 0.113E-01 0.520E-01
   0.899E-01 0.145E+02 0.143E+01   -.103E+00 -.145E+02 -.137E+01   0.117E-01 0.186E-01 -.570E-01
   0.121E+00 0.144E+02 -.150E+01   -.131E+00 -.144E+02 0.144E+01   0.842E-02 0.186E-01 0.576E-01
   0.365E+00 -.151E+02 0.151E+01   -.339E+00 0.151E+02 -.146E+01   -.263E-01 0.103E-01 -.524E-01
   -.147E+02 -.133E+01 -.246E-02   0.146E+02 0.198E+01 0.188E-02   0.149E+00 -.654E+00 0.625E-03
   0.133E+02 -.762E+00 0.158E-03   -.133E+02 0.767E+00 -.561E-03   0.602E-01 -.602E-02 -.258E-03
   0.947E+00 -.618E+01 0.493E-01   -.572E+00 0.622E+01 -.515E-01   -.371E+00 -.534E-01 0.141E-02
   -.190E+02 -.282E+00 0.313E-01   0.190E+02 0.256E+00 -.315E-01   0.212E-01 0.254E-01 -.581E-04
   -.905E+00 -.154E+02 0.266E-01   0.960E+00 0.155E+02 -.281E-01   -.528E-01 -.669E-01 0.798E-03
   -.818E+00 0.202E+02 -.135E-01   0.386E+00 -.200E+02 0.153E-01   0.433E+00 -.156E+00 -.114E-02
   0.549E+00 0.608E+01 0.630E-02   -.214E+00 -.611E+01 -.713E-02   -.332E+00 0.508E-01 0.587E-03
   -.102E+01 -.200E+02 -.419E-01   0.580E+00 0.198E+02 0.434E-01   0.445E+00 0.147E+00 -.105E-02
   -.132E+02 -.307E+00 -.714E+00   0.132E+02 0.286E+00 0.690E+00   -.497E-01 0.203E-01 0.232E-01
   0.136E+02 -.130E+00 -.581E-01   -.137E+02 0.131E+00 0.618E-01   0.444E-01 -.733E-03 -.222E-02
   0.142E+02 0.772E-01 -.386E+00   -.142E+02 -.931E-01 0.344E+00   0.808E-02 0.163E-01 0.437E-01
   -.153E+02 0.493E+00 -.113E+01   0.153E+02 -.461E+00 0.108E+01   -.855E-02 -.304E-01 0.506E-01
   -.272E+00 -.134E+02 -.182E+01   0.227E+00 0.135E+02 0.181E+01   0.440E-01 -.498E-01 0.136E-01
   0.202E+00 0.134E+02 -.521E+00   -.189E+00 -.134E+02 0.538E+00   -.132E-01 0.467E-01 -.128E-01
   0.240E+00 0.134E+02 0.438E+00   -.226E+00 -.134E+02 -.455E+00   -.133E-01 0.467E-01 0.126E-01
   -.287E+00 -.134E+02 0.178E+01   0.240E+00 0.135E+02 -.177E+01   0.460E-01 -.495E-01 -.139E-01
   -.143E+02 0.132E+01 0.703E-01   0.142E+02 -.198E+01 -.715E-01   0.154E+00 0.663E+00 0.880E-04
   0.135E+02 0.820E+00 0.117E-01   -.136E+02 -.825E+00 -.125E-01   0.463E-01 0.450E-02 0.648E-03
   0.145E+02 0.623E-01 0.442E-02   -.145E+02 -.617E-01 -.445E-02   0.734E-02 -.918E-03 -.120E-03
   -.148E+02 0.218E+00 0.173E-01   0.148E+02 -.193E+00 -.175E-01   0.996E-02 -.253E-01 0.336E-03
   0.795E+00 0.137E+02 -.312E-01   -.802E+00 -.138E+02 0.320E-01   0.571E-02 0.366E-01 -.518E-03
   -.592E+00 0.156E+02 0.468E-01   0.679E+00 -.157E+02 -.487E-01   -.844E-01 0.716E-01 0.829E-03
   0.107E+01 -.140E+02 0.298E-01   -.106E+01 0.140E+02 -.299E-01   -.175E-01 -.317E-01 -.127E-03
   -.152E+02 0.539E+00 0.107E+01   0.152E+02 -.506E+00 -.103E+01   -.881E-02 -.312E-01 -.506E-01
[...]
   0.766E-01 -.265E+01 0.822E+02   -.701E-01 0.264E+01 -.826E+02   -.849E-02 0.109E-01 0.456E+00
   -.112E+00 -.329E+01 0.834E+02   0.104E+00 0.332E+01 -.838E+02   0.818E-02 -.346E-01 0.496E+00
   -.160E+02 0.108E+02 -.897E+02   0.162E+02 -.110E+02 0.902E+02   -.153E+00 0.113E+00 -.507E+00
   0.187E+02 0.164E+02 -.879E+02   -.189E+02 -.166E+02 0.885E+02   0.158E+00 0.170E+00 -.544E+00
   0.157E+01 0.243E+00 -.867E+02   -.158E+01 -.236E+00 0.872E+02   0.168E-01 -.951E-02 -.467E+00
   -.360E+00 -.402E+00 -.872E+02   0.360E+00 0.404E+00 0.877E+02   -.581E-02 -.834E-03 -.467E+00
   -.158E+02 0.110E+02 0.900E+02   0.160E+02 -.111E+02 -.905E+02   -.154E+00 0.113E+00 0.497E+00
   0.188E+02 0.165E+02 0.880E+02   -.189E+02 -.167E+02 -.885E+02   0.158E+00 0.167E+00 0.540E+00
   0.177E+01 0.249E+00 0.868E+02   -.178E+01 -.243E+00 -.873E+02   0.173E-01 -.753E-02 0.465E+00
   -.268E+00 -.392E+00 0.873E+02   0.268E+00 0.396E+00 -.877E+02   -.524E-02 -.157E-02 0.470E+00
   -.808E-02 -.330E+01 -.835E+02   0.512E-02 0.334E+01 0.840E+02   0.267E-02 -.376E-01 -.493E+00
   -.327E-02 -.452E+01 -.742E+02   -.102E-01 0.456E+01 0.746E+02   0.132E-01 -.389E-01 -.411E+00
   0.653E+00 0.110E+01 -.829E+02   -.655E+00 -.111E+01 0.834E+02   0.189E-02 0.237E-03 -.490E+00
   0.151E+00 0.208E+01 -.822E+02   -.142E+00 -.208E+01 0.826E+02   -.124E-01 0.470E-02 -.458E+00
   -.416E+01 -.172E+00 0.590E-02   -.414E-12 0.477E-12 0.455E-12   0.413E+01 0.176E+00 -.344E-02

 POSITION                                       TOTAL-FORCE (eV/Angst)
      7.49526     -7.48282      2.04959         0.004123      0.011851      0.017706
      3.63777      0.20829      2.04340        -0.012382      0.007699      0.003391
      7.47346     -3.64552      2.03570        -0.008498     -0.005104      0.007408
     11.34405     -3.64231      2.02652         0.005556     -0.003362      0.001129
      9.39879     -5.42931      4.45451        -0.000770      0.024792     -0.001268
      5.56946      2.11124      4.38260        -0.001690     -0.005912      0.010481
      9.40001     -1.85284      4.45112        -0.002134     -0.022568     -0.000123
     13.25926     -1.69915      4.37742        -0.000124      0.003739      0.022515
      5.57421     -9.38654      8.47264        -0.000666      0.006287     -0.023505
      1.72663     -1.70940      8.47032        -0.000955      0.013657     -0.008516
      5.56742     -5.57321      8.47202        -0.005970      0.002541     -0.020141
      9.40173     -5.42639      8.39527        -0.000684      0.026007     -0.001205
      7.50197     -7.47587     10.80670         0.002999      0.011380     -0.015285
      3.64526      0.21528     10.80661        -0.010316      0.007310     -0.004104
      7.48056     -3.63800     10.81426        -0.008444     -0.003433     -0.005816
     11.35092     -3.63501     10.81735         0.002090     -0.005042     -0.001558
      7.49804      0.19910      2.04320         0.011524     -0.009314      0.009606
     11.33035      0.19909      2.03500        -0.012365     -0.004033      0.011781
      7.48890      4.04810      2.02986        -0.004135      0.000109      0.007260
      3.64580     -3.64553      2.03751        -0.001026     -0.001398      0.000144
      9.41508      2.12016      4.37652        -0.002437     -0.014507      0.007292
      5.56398     -5.57669      4.38464        -0.006525      0.002791      0.019489
      1.72342     -1.71264      4.38613        -0.000137      0.012797      0.008169
      5.56354     -1.70894      4.38295        -0.006475     -0.002142      0.011672
      5.56747     -1.70531      8.46730        -0.005350     -0.001079     -0.011905
      9.40345     -1.84860      8.39290        -0.001685     -0.021447     -0.002825
      5.57352      2.11476      8.46128         0.003118     -0.004550     -0.010359
      1.72993     -5.56763      8.47381        -0.004503     -0.015130     -0.007901
      7.50534      0.20629     10.80017         0.010317     -0.010063     -0.006296
      3.64907     -7.48484     10.81506        -0.012284     -0.004491     -0.009529
     -0.19214     -3.63599     10.82021        -0.002283      0.000137     -0.005469
      3.65286     -3.63865     10.81888        -0.000774     -0.000999     -0.001844
      1.72228      0.47943      0.00644        -0.000338      0.002489      0.003957
      9.42310     -3.91959     12.84709        -0.000732     -0.004535     -0.002317
      9.41256     -3.93021      0.00023        -0.001207     -0.004393      0.001735
      1.73270      0.48990     12.84642        -0.000196      0.002550     -0.003214
      2.03599      0.19316      6.42630         0.006725     -0.008889      0.000026
      5.30660      0.20162      6.42370         0.006650     -0.001531     -0.000683
      7.52970     -1.53759      6.42336         0.004111     -0.015629     -0.000801
      5.87131     -3.64139      6.42650        -0.008542     -0.000075     -0.000286
     -0.19926     -1.43403      6.42955         0.002636      0.007245     -0.000724
     11.31162     -2.08078      6.42048         0.000917     -0.007769      0.000710
      7.52753     -5.74418      6.42678         0.004041      0.015614     -0.000268
      3.61888      2.49472      6.42315         0.000786      0.007398      0.000454
      0.09350     -1.71026     12.85227        -0.000356     -0.001464     -0.001691
      7.21636      2.12293     -0.00752         0.001933      0.000610      0.001511
     11.04822     -1.72287      0.00012        -0.004436      0.000320      0.001616
      7.77220     -1.72480      0.00263         0.002833      0.001846      0.004175
      9.41132      0.48482     -0.00790        -0.000424     -0.000266      0.003196
      5.56764     -0.07340      0.00235         0.000043      0.002239      0.004537
      5.57833     -0.06281     12.84487         0.000734      0.002258     -0.004458
      1.73355     -7.19568     12.86059        -0.001068     -0.000866     -0.001900
      9.72862      0.21765      6.41995         0.002988      0.007064     -0.001082
      5.30626     -7.48045      6.43004         0.006895     -0.000723     -0.000188
      1.44626     -3.64042      6.42993        -0.001040     -0.000275     -0.000177
      5.86731      4.05245      6.42012         0.011089      0.000226      0.000077
      3.65453     -2.00696      6.42687        -0.001182      0.002906      0.000252
      7.49229      1.84558      6.42062         0.002418     -0.008851     -0.001041
      3.65710     -5.27312      6.42960        -0.001774     -0.000449     -0.000242
      7.78274     -1.71410     12.84378         0.002421      0.001906     -0.003486
[...]
      5.56910     -5.56343      1.93951        -0.002307      0.002033      0.005160
      1.72315     -1.72496      1.94702        -0.001546      0.000702      0.005248
      5.56843     -1.72533      1.94361         0.001017     -0.000283      0.007948
      7.47293      0.21731      4.46783         0.004857     -0.006266      0.011939
     11.36492      0.24486      4.45461        -0.002601     -0.006932      0.000896
      7.49381      4.04988      4.46268         0.003957     -0.002327      0.007902
      3.64469     -3.64153      4.46856        -0.005223      0.001500      0.011955
      7.47622      0.22059      8.37642         0.003743     -0.006884     -0.017917
      3.67955     -7.44299      8.39566        -0.002531     -0.008554     -0.005156
     -0.19123     -3.63812      8.38751         0.003977     -0.001826     -0.010220
      3.64791     -3.63843      8.38781        -0.004644      0.002425     -0.012531
      5.57634     -1.71770     10.90622        -0.000041     -0.000328     -0.005002
      9.42390     -1.71317     10.85519        -0.000263      0.003347     -0.010689
      5.57747      2.13346     10.90071         0.000372     -0.001700     -0.006997
      1.73007     -5.55596     10.91361        -0.002685      0.002470     -0.003839
    total drift:                               -0.030257      0.003385      0.002453

  FREE ENERGIE OF THE ION-ELECTRON SYSTEM (eV)
  free  energy   TOTEN  =      -585.31127082 eV

  energy  without entropy=     -585.28216645  energy(sigma->0) =     -585.29671864

 d Force = 0.8474855E-03[ 0.673E-03, 0.102E-02]  d Energy = 0.1027881E-02-0.180E-03
 d Force = 0.4489814E+00[ 0.437E+00, 0.461E+00]  d Ewald  = 0.4489805E+00 0.916E-06

 Steepest descent step on ions:
 trial-energy change:   -0.001028  1 .order   -0.000847   -0.001022   -0.000673
  (g-gl).g = 0.102E-02      g.g   = 0.102E-02  gl.gl    = 0.000E+00
 g(Force)  = 0.102E-02   g(Stress)= 0.000E+00 ortho     = 0.000E+00
 gamma     =   0.00000
 trial     =   1.00000
 opt step  =   2.92397  (harmonic =   2.92397) maximal distance =0.00454868
 next E    =  -585.311738   (d E  =  -0.00149)

 reached required accuracy - stopping structural energy minimisation

 total charge

[...]

 magnetization (x)

# of ion       s       p       d       tot
    1        0.041   0.030   3.570   3.640
    2        0.041   0.030   3.568   3.639
    3        0.042   0.030   3.560   3.631
    4        0.041   0.030   3.567   3.637
    5        0.043   0.031   3.547   3.621
    6        0.040   0.030   3.561   3.630
    7        0.043   0.031   3.549   3.623
    8        0.040   0.030   3.567   3.636
    9        0.040   0.030   3.567   3.636
   10        0.040   0.030   3.572   3.642
   11        0.039   0.030   3.563   3.632
   12        0.043   0.031   3.547   3.621
   13        0.041   0.030   3.570   3.640
   14        0.041   0.030   3.568   3.639
   15        0.042   0.030   3.560   3.631
   16        0.041   0.030   3.567   3.637
   17        0.041   0.030   3.570   3.640
   18        0.041   0.030   3.565   3.636
   19        0.040   0.030   3.571   3.641
   20        0.040   0.030   3.571   3.641
   21        0.040   0.030   3.573   3.643
   22        0.039   0.030   3.563   3.632
   23        0.040   0.030   3.572   3.642
   24        0.040   0.030   3.556   3.626
   25        0.040   0.030   3.556   3.626
   26        0.043   0.031   3.549   3.623
   27        0.040   0.030   3.561   3.630
   28        0.040   0.030   3.573   3.643
   29        0.041   0.030   3.570   3.640
   30        0.041   0.030   3.565   3.636
   31        0.040   0.030   3.571   3.641
   32        0.040   0.030   3.571   3.641
   33       -0.000   0.001   0.000   0.001
   34        0.000   0.001   0.000   0.001
   35        0.000   0.001   0.000   0.001
   36       -0.000   0.001   0.000   0.001
   37        0.000   0.001   0.000   0.002
   38       -0.000   0.001   0.000   0.001
   39       -0.000   0.001   0.000   0.001
   40        0.000   0.001   0.000   0.001
   41        0.000   0.001   0.000   0.001
   42        0.000   0.001   0.000   0.001
   43       -0.000   0.001   0.000   0.001
   44        0.000   0.001   0.000   0.001
   45        0.000   0.001   0.000   0.001
   46        0.000   0.001   0.000   0.001
   47        0.000   0.001   0.000   0.001
   48        0.000   0.001   0.000   0.001
   49        0.000   0.001   0.000   0.001
   50        0.000   0.001   0.000   0.001
   51        0.000   0.001   0.000   0.001
   52        0.000   0.001   0.000   0.001
   53        0.000   0.001   0.000   0.002
   54       -0.000   0.001   0.000   0.001
   55        0.000   0.001   0.000   0.001
   56        0.000   0.001   0.000   0.001
   57        0.000   0.001   0.000   0.001
   58        0.000   0.001   0.000   0.001
   59        0.000   0.001   0.000   0.001
   60        0.000   0.001   0.000   0.001
[...]
   97        0.016   0.061   0.000   0.077
   98        0.016   0.066   0.000   0.082
   99        0.016   0.061   0.000   0.077
  100        0.015   0.056   0.000   0.071
  101        0.015   0.057   0.000   0.072
  102        0.016   0.066   0.000   0.082
  103        0.016   0.065   0.000   0.081
  104        0.015   0.056   0.000   0.071
  105        0.015   0.057   0.000   0.072
  106        0.016   0.066   0.000   0.082
  107        0.016   0.065   0.000   0.081
  108        0.016   0.061   0.000   0.077
  109        0.015   0.054   0.000   0.069
  110        0.016   0.063   0.000   0.079
  111        0.016   0.065   0.000   0.081
tot          1.936   4.382 114.057 120.375