 vasp.5.4.4.18Apr17-6-g9f103f2a35 (build Oct 25 2017 14:42:18) complex

 executed on             LinuxIFC date 2021.04.17  04:28:27

 INCAR:
 POTCAR:    PAW_PBE Li_sv 10Sep2004
 POTCAR:    PAW_PBE O 08Apr2002
 POTCAR:    PAW_PBE S 06Sep2000
 POTCAR:    PAW_PBE Fe_pv 02Aug2007

 POTCAR:    PAW_PBE Li_sv 10Sep2004

 POTCAR:    PAW_PBE O 08Apr2002

 POTCAR:    PAW_PBE S 06Sep2000

 POTCAR:    PAW_PBE Fe_pv 02Aug2007

  PAW_PBE Li_sv 10Sep2004               :
  PAW_PBE O 08Apr2002                   :
  PAW_PBE S 06Sep2000                   :
  PAW_PBE Fe_pv 02Aug2007               :

 POSCAR: # Compound: Li36O18S36Fe36. Old comment:
  positions in direct lattice
 exchange correlation table for  LEXCH =        8
   RHO(1)=    0.500       N(1)  =     2000
   RHO(2)=  100.500       N(2)  =     4000

 ion  position               nearest neighbor table
   1  0.149  0.017  0.000-  37 1.93  39 1.93
   2  0.483  0.017  0.000-  38 1.93  37 1.93
   3  0.816  0.017  0.000-  39 1.93  38 1.93
   4  0.149  0.351  0.000-  40 1.93  42 1.93
   5  0.483  0.351  0.000-  41 1.93  40 1.93
   6  0.816  0.351  0.000-  42 1.93  41 1.93
   7  0.149  0.684  0.000-  43 1.93  45 1.93
   8  0.483  0.684  0.000-  44 1.93  43 1.93
   9  0.816  0.684  0.000-  45 1.93  44 1.93
  10  0.149  0.017  0.500-  46 1.93  48 1.93
  11  0.483  0.017  0.500-  47 1.93  46 1.93
  12  0.816  0.017  0.500-  48 1.93  47 1.93
  13  0.149  0.351  0.500-  49 1.93  51 1.93
  14  0.483  0.351  0.500-  50 1.93  49 1.93
  15  0.816  0.351  0.500-  51 1.93  50 1.93
  16  0.149  0.684  0.500-  52 1.93  54 1.93
  17  0.483  0.684  0.500-  53 1.93  52 1.93
  18  0.816  0.684  0.500-  54 1.93  53 1.93
  19  0.316  0.184  0.500-  46 1.93  49 1.93
  20  0.649  0.184  0.500-  47 1.93  50 1.93
  21  0.983  0.184  0.500-  48 1.93  51 1.93
  22  0.316  0.517  0.500-  49 1.93  52 1.93
  23  0.649  0.517  0.500-  50 1.93  53 1.93
  24  0.983  0.517  0.500-  51 1.93  54 1.93
  25  0.316  0.851  0.500-  52 1.93  46 1.93
  26  0.649  0.851  0.500-  53 1.93  47 1.93
  27  0.983  0.851  0.500-  54 1.93  48 1.93
  28  0.316  0.184  1.000-  37 1.93  40 1.93
  29  0.649  0.184  1.000-  38 1.93  41 1.93
  30  0.983  0.184  1.000-  39 1.93  42 1.93
  31  0.316  0.517  1.000-  40 1.93  43 1.93
  32  0.649  0.517  1.000-  41 1.93  44 1.93
  33  0.983  0.517  1.000-  42 1.93  45 1.93
  34  0.316  0.851  1.000-  43 1.93  37 1.93
  35  0.649  0.851  1.000-  44 1.93  38 1.93
  36  0.983  0.851  1.000-  45 1.93  39 1.93
  37  0.316  0.017  0.000-  28 1.93   1 1.93   2 1.93  34 1.93  92 2.04 124 2.04
  38  0.649  0.017  0.000-  29 1.93   2 1.93   3 1.93  35 1.93  93 2.04 125 2.04
  39  0.983  0.017  0.000-  30 1.93   3 1.93   1 1.93  36 1.93 126 2.04  91 2.04
  40  0.316  0.351  0.000-  31 1.93   4 1.93   5 1.93  28 1.93  95 2.04 118 2.04
  41  0.649  0.351  0.000-  32 1.93   5 1.93   6 1.93  29 1.93  96 2.04 119 2.04
  42  0.983  0.351  0.000-  33 1.93   6 1.93   4 1.93  30 1.93  94 2.04 120 2.04
  43  0.316  0.684  0.000-  34 1.93   7 1.93   8 1.93  31 1.93  98 2.04 121 2.04
  44  0.649  0.684  0.000-  35 1.93   8 1.93   9 1.93  32 1.93  99 2.04 122 2.04
  45  0.983  0.684  0.000-  36 1.93   9 1.93   7 1.93  33 1.93  97 2.04 123 2.04
  46  0.316  0.017  0.500-  19 1.93  10 1.93  11 1.93  25 1.93 101 2.04 115 2.04
  47  0.649  0.017  0.500-  20 1.93  11 1.93  12 1.93  26 1.93 102 2.04 116 2.04
  48  0.983  0.017  0.500-  21 1.93  12 1.93  10 1.93  27 1.93 100 2.04 117 2.04
  49  0.316  0.351  0.500-  22 1.93  13 1.93  14 1.93  19 1.93 104 2.04 109 2.04
  50  0.649  0.351  0.500-  23 1.93  14 1.93  15 1.93  20 1.93 105 2.04 110 2.04
  51  0.983  0.351  0.500-  24 1.93  15 1.93  13 1.93  21 1.93 103 2.04 111 2.04
  52  0.316  0.684  0.500-  25 1.93  16 1.93  17 1.93  22 1.93 107 2.04 112 2.04
  53  0.649  0.684  0.500-  26 1.93  17 1.93  18 1.93  23 1.93 108 2.04 113 2.04
  54  0.983  0.684  0.500-  27 1.93  18 1.93  16 1.93  24 1.93 106 2.04 114 2.04
  55  0.199  0.234  0.150- 109 2.43  91 2.72  94 2.73  92 2.73  95 2.73
  56  0.533  0.234  0.150- 110 2.43  92 2.73  95 2.73  93 2.73  96 2.73
  57  0.866  0.234  0.150- 111 2.43  93 2.73  96 2.73  94 2.73  91 2.74
  58  0.199  0.567  0.150- 112 2.43  94 2.73  97 2.73  95 2.73  98 2.73
  59  0.533  0.567  0.150- 113 2.43  95 2.73  98 2.73  96 2.73  99 2.73
  60  0.866  0.567  0.150- 114 2.43  96 2.73  99 2.73  94 2.73  97 2.73
[...]
 112  0.263  0.631  0.340-  52 2.04  58 2.43  76 2.73  77 2.73  79 2.73  80 2.73
 113  0.596  0.631  0.340-  53 2.04  59 2.43  77 2.73  78 2.73  80 2.73  81 2.73
 114  0.929  0.631  0.340-  54 2.04  60 2.43  78 2.73  76 2.73  81 2.73  79 2.73
 115  0.263  0.964  0.340-  46 2.04  61 2.43  79 2.73  80 2.73  73 2.73  74 2.73
 116  0.596  0.964  0.340-  47 2.04  62 2.43  80 2.73  81 2.73  74 2.73  75 2.73
 117  0.929  0.964  0.340-  48 2.04  63 2.43  81 2.73  79 2.73  75 2.73  73 2.73
 118  0.263  0.297  0.840-  40 2.04  64 2.43  82 2.73  83 2.73  85 2.73  86 2.73
 119  0.596  0.297  0.840-  41 2.04  65 2.43  83 2.73  84 2.73  86 2.73  87 2.73
 120  0.929  0.297  0.840-  42 2.04  66 2.43  84 2.73  82 2.73  87 2.73  85 2.73
 121  0.263  0.631  0.840-  43 2.04  67 2.43  85 2.73  86 2.73  88 2.73  89 2.73
 122  0.596  0.631  0.840-  44 2.04  68 2.43  86 2.73  87 2.73  89 2.73  90 2.73
 123  0.929  0.631  0.840-  45 2.04  69 2.43  87 2.73  85 2.73  90 2.73  88 2.73
 124  0.263  0.964  0.840-  37 2.04  70 2.43  88 2.73  89 2.73  82 2.73  83 2.73
 125  0.596  0.964  0.840-  38 2.04  71 2.43  89 2.73  90 2.73  83 2.73  84 2.73
 126  0.929  0.964  0.840-  39 2.04  72 2.43  90 2.73  88 2.73  84 2.73  82 2.73

IMPORTANT INFORMATION: All symmetrisations will be switched off!
NOSYMM: (Re-)initialisation of all symmetry stuff for point group C_1.

 KPOINTS: # No comment

Automatic generation of k-mesh.
Space group operators:
 irot       det(A)        alpha          n_x          n_y          n_z        tau_x        tau_y        tau_z
    1     1.000000     0.000000     1.000000     0.000000     0.000000     0.000000     0.000000     0.000000

 Subroutine IBZKPT returns following result:

 Found     10 irreducible k-points:

 Following reciprocal coordinates:
            Coordinates               Weight
  0.000000  0.000000  0.000000      1.000000
  0.333333  0.000000 -0.000000      2.000000
 -0.000000  0.333333  0.000000      2.000000
  0.333333  0.333333 -0.000000      2.000000
 -0.333333  0.333333  0.000000      2.000000
  0.000000 -0.000000  0.500000      1.000000
  0.333333 -0.000000  0.500000      2.000000
  0.000000  0.333333  0.500000      2.000000
  0.333333  0.333333  0.500000      2.000000
 -0.333333  0.333333  0.500000      2.000000

 Following cartesian coordinates:
            Coordinates               Weight
  0.000000  0.000000  0.000000      1.000000
  0.028801  0.000012  0.008684      2.000000
  0.000002  0.028801  0.008684      2.000000
  0.028803  0.028813  0.017368      2.000000
 -0.028799  0.028789 -0.000000      2.000000
  0.000032  0.000032  0.039185      1.000000
  0.028833  0.000044  0.047869      2.000000
  0.000034  0.028833  0.047869      2.000000
  0.028835  0.028845  0.056553      2.000000
 -0.028767  0.028821  0.039185      2.000000

 SYSTEM =  unknown system
 POSCAR =  # Compound: Li36O18S36Fe36. Old comment:

 Startparameter for this run:
   NWRITE =      1    write-flag & timer
   PREC   = accura    normal or accurate (medium, high low for compatibility)
   ISTART =      0    job   : 0-new  1-cont  2-samecut
   ICHARG =      1    charge: 1-file 2-atom 10-const
   ISPIN  =      2    spin polarized calculation?
   LNONCOLLINEAR =      F non collinear calculations
   LSORBIT =      F    spin-orbit coupling
   INIWAV =      1    electr: 0-lowe 1-rand  2-diag
   LASPH  =      T    aspherical Exc in radial PAW
   METAGGA=      F    non-selfconsistent MetaGGA calc.

 Electronic Relaxation 1
   ENCUT  =  650.0 eV  47.77 Ry    6.91 a.u.  24.07 24.07 28.85*2*pi/ulx,y,z
   ENINI  =  650.0     initial cutoff
   ENAUG  =  628.9 eV  augmentation charge cutoff
   NELM   =    200;   NELMIN=  8; NELMDL=  0     # of ELM steps
   EDIFF  = 0.1E-05   stopping-criterion for ELM
   LREAL  =      F    real-space projection
   NLSPLINE    = F    spline interpolate recip. space projectors
   LCOMPAT=      F    compatible to vasp.4.4
   GGA_COMPAT  = T    GGA compatible to vasp.4.4-vasp.4.6
   LMAXPAW     = -100 max onsite density
   LMAXMIX     =    4 max onsite mixed and CHGCAR
   VOSKOWN=      0    Vosko Wilk Nusair interpolation
   ROPT   =    0.00000   0.00000   0.00000   0.00000
 Ionic relaxation
   EDIFFG = 0.1E-04   stopping-criterion for IOM
   NSW    =      0    number of steps for IOM
   NBLOCK =      1;   KBLOCK =      1    inner block; outer block
   IBRION =     -1    ionic relax: 0-MD 1-quasi-New 2-CG
   NFREE  =      0    steps in history (QN), initial steepest desc. (CG)
   ISIF   =      3    stress and relaxation
   IWAVPR =     10    prediction:  0-non 1-charg 2-wave 3-comb
   ISYM   =      0    0-nonsym 1-usesym 2-fastsym
   LCORR  =      T    Harris-Foulkes like correction to forces

   POTIM  = 0.5000    time-step for ionic-motion
   TEIN   =    0.0    initial temperature
   TEBEG  =    0.0;   TEEND  =   0.0 temperature during run
   SMASS  =  -3.00    Nose mass-parameter (am)
   estimated Nose-frequenzy (Omega)   =  0.10E-29 period in steps =****** mass=  -0.306E-26a.u.
   SCALEE = 1.0000    scale energy and forces
   NPACO  =    256;   APACO  = 16.0  distance and # of slots for P.C.
   PSTRESS=    0.0 pullay stress

  Mass of Ions in am
   POMASS =   7.01 16.00 32.07 55.85
  Ionic Valenz
   ZVAL   =   3.00  6.00  6.00 14.00
  Atomic Wigner-Seitz radii
  virtual crystal weights
   VCA    =   1.00  1.00  1.00  1.00
   NELECT =     936.0000    total number of electrons
   NUPDOWN=      -1.0000    fix difference up-down

 DOS related values:
   EMIN   =  10.00;   EMAX   =-10.00  energy-range for DOS
   EFERMI =   0.00
   ISMEAR =     0;   SIGMA  =   0.05  broadening in eV -4-tet -1-fermi 0-gaus

 Electronic relaxation 2 (details)
   IALGO  =     58    algorithm
   LDIAG  =      T    sub-space diagonalisation (order eigenvalues)
   LSUBROT=      F    optimize rotation matrix (better conditioning)
   TURBO    =      0    0=normal 1=particle mesh
   IRESTART =      0    0=no restart 2=restart with 2 vectors
   NREBOOT  =      0    no. of reboots
   NMIN     =      0    reboot dimension
   EREF     =   0.00    reference energy to select bands
   IMIX   =      4    mixing-type and parameters
     AMIX     =   0.40;   BMIX     =  1.00
     AMIX_MAG =   1.60;   BMIX_MAG =  1.00
     AMIN     =   0.10
     WC   =   100.;   INIMIX=   1;  MIXPRE=   1;  MAXMIX= -45

 Intra band minimization:
   WEIMIN = 0.0000     energy-eigenvalue tresh-hold
   EBREAK =  0.37E-09  absolut break condition
   DEPER  =   0.30     relativ break condition

   TIME   =   0.40     timestep for ELM

  volume/ion in A,a.u.               =      13.57        91.59
  Fermi-wavevector in a.u.,A,eV,Ry     =   1.339150  2.530627 24.399639  1.793323
  Thomas-Fermi vector in A             =   2.467565

 Write flags
   LWAVE        =      F    write WAVECAR
   LDOWNSAMPLE  =      F    k-point downsampling of WAVECAR
[...]
     58     -45.9370      1.00000
     59     -45.9370      1.00000
     60     -45.9370      1.00000
[...]
    666      13.6483      0.00000
    667      13.6829      0.00000
    668      13.7076      0.00000
    669      13.7307      0.00000
    670      13.7716      0.00000
    671      13.8432      0.00000
    672      13.8739      0.00000
    673      14.0681      0.00000
    674      14.0957      0.00000
    675      14.1295      0.00000
    676      14.1592      0.00000
    677      14.1885      0.00000
    678      14.2352      0.00000
    679      14.2609      0.00000
    680      14.3240      0.00000

 soft charge-density along one line, spin component           1
         0         1         2         3         4         5         6         7         8         9
 total charge-density along one line

 soft charge-density along one line, spin component           2
         0         1         2         3         4         5         6         7         8         9
 total charge-density along one line

------------------------ aborting loop because EDIFF is reached ----------------------------------------

  FORCE on cell =-STRESS in cart. coord.  units (eV):
  Direction    XX          YY          ZZ          XY          YZ          ZX
  Alpha Z  2639.27042  2639.27042  2639.27042
  Ewald  -26477.60982-26477.61122-16280.47304    -0.13599     8.67660    10.57021
  Hartree  9502.78181  9502.12136 15822.75838    -0.06995     5.42859     6.95889
  E(xc)   -5064.28485 -5064.28247 -5052.87986    -0.00026     0.00980     0.01077
  Local    1599.16592  1600.67979-14088.41741     0.20600   -13.38680   -16.70403
  n-local   387.36275   387.42334   658.65080    -0.00043     0.22490     0.24081
  augment  5422.12946  5421.56688  4931.07091    -0.00278    -0.42575    -0.50387
  Kinetic 11991.02449 11990.70586 11369.93141     0.00263    -0.53033    -0.58656
  Fock        0.00000     0.00000     0.00000     0.00000     0.00000     0.00000
  Total      -0.15982    -0.12604    -0.08839    -0.00078    -0.00300    -0.01378
  in kB      -0.14973    -0.11809    -0.08282    -0.00073    -0.00281    -0.01291

 VOLUME and BASIS-vectors are now :
  energy-cutoff  :      650.00
  volume of cell :     1710.06
      direct lattice vectors                 reciprocal lattice vectors
    11.576583240  0.002066280 -0.009542910     0.086402742  0.000036295  0.026052044
    -0.001985520 11.576599830 -0.009542940     0.000006054  0.086402626  0.026052036
    -3.847679420 -3.849030720 12.766359180     0.000064591  0.000064614  0.078369816

  length of vectors
    11.576587358 11.576603934 13.878025836     0.090244912  0.090244792  0.078369870

 FORCES acting on ions:
    Electron-Ion                     Ewald-Force                    Non-Local-Force
   -.122E+00 -.160E-02 0.405E+00   0.125E+00 0.142E-02 -.414E+00   0.898E-03 0.670E-04 0.262E-02
   -.858E-01 -.175E-02 0.516E-02   0.879E-01 0.158E-02 -.523E-02   -.134E-02 0.627E-04 0.820E-04
   -.125E+00 -.218E-02 -.389E+00   0.128E+00 0.201E-02 0.399E+00   0.838E-03 0.604E-04 -.242E-02
   0.222E-01 -.463E-01 0.322E-01   -.233E-01 0.481E-01 -.349E-01   0.798E-03 -.101E-02 0.154E-02
   -.307E-01 -.188E-02 0.483E-02   0.324E-01 0.172E-02 -.487E-02   -.106E-02 0.598E-04 0.784E-04
   0.204E-01 0.427E-01 -.198E-01   -.215E-01 -.448E-01 0.223E-01   0.774E-03 0.112E-02 -.134E-02
   0.221E-01 0.428E-01 0.319E-01   -.232E-01 -.449E-01 -.346E-01   0.791E-03 0.114E-02 0.153E-02
   -.307E-01 -.185E-02 0.503E-02   0.325E-01 0.168E-02 -.508E-02   -.106E-02 0.634E-04 0.780E-04
   0.206E-01 -.464E-01 -.197E-01   -.217E-01 0.481E-01 0.222E-01   0.781E-03 -.100E-02 -.134E-02
   0.492E-01 -.234E-02 0.888E-02   -.495E-01 0.221E-02 -.905E-02   0.365E-03 0.396E-04 0.131E-03
   -.163E-01 0.941E-02 -.233E-01   0.164E-01 -.973E-02 0.239E-01   -.124E-04 0.154E-03 -.297E-03
   -.110E-01 -.125E-01 0.316E-01   0.111E-01 0.125E-01 -.323E-01   0.306E-04 -.260E-04 0.437E-03
   0.497E-01 -.176E-02 0.770E-02   -.500E-01 0.157E-02 -.789E-02   0.374E-03 0.706E-04 0.134E-03
   -.157E-01 -.126E-01 -.222E-01   0.159E-01 0.126E-01 0.227E-01   -.115E-04 -.299E-04 -.276E-03
   -.120E-01 0.891E-02 0.316E-01   0.122E-01 -.922E-02 -.323E-01   0.155E-04 0.148E-03 0.450E-03
   0.201E-01 -.133E-02 0.877E-02   -.202E-01 0.113E-02 -.895E-02   0.264E-03 0.677E-04 0.133E-03
   -.337E-02 -.232E-02 -.489E-02   0.339E-02 0.217E-02 0.551E-02   0.609E-04 0.505E-04 -.333E-03
   0.189E-02 -.183E-02 0.132E-01   -.193E-02 0.164E-02 -.140E-01   0.114E-03 0.639E-04 0.515E-03
   0.126E-01 -.687E-02 -.653E-01   -.138E-01 0.687E-02 0.648E-01   0.755E-03 -.926E-04 0.377E-03
   -.313E-01 -.633E-02 -.816E-02   0.325E-01 0.632E-02 0.828E-02   -.610E-03 -.805E-04 -.101E-03
   0.164E-01 -.723E-02 0.563E-01   -.177E-01 0.728E-02 -.556E-01   0.781E-03 -.110E-03 -.557E-03
   0.807E-02 -.176E-01 -.218E-01   -.819E-02 0.177E-01 0.220E-01   0.855E-04 -.153E-03 -.152E-03
   -.145E-01 -.735E-02 -.814E-02   0.155E-01 0.736E-02 0.824E-02   -.500E-03 -.982E-04 -.956E-04
   0.120E-01 0.445E-02 0.127E-01   -.123E-01 -.459E-02 -.128E-01   0.139E-03 -.676E-05 -.298E-04
   0.715E-02 0.393E-02 -.218E-01   -.722E-02 -.403E-02 0.220E-01   0.591E-04 -.258E-04 -.152E-03
   -.140E-01 -.680E-02 -.945E-02   0.150E-01 0.681E-02 0.958E-02   -.488E-03 -.864E-04 -.105E-03
   0.125E-01 -.176E-01 0.141E-01   -.127E-01 0.177E-01 -.141E-01   0.150E-03 -.157E-03 -.346E-04
   -.738E-01 -.534E-01 0.437E-01   0.760E-01 0.534E-01 -.452E-01   -.107E-02 -.147E-03 0.725E-03
   -.752E-01 0.395E-01 -.555E-01   0.774E-01 -.395E-01 0.572E-01   -.109E-02 -.332E-04 -.936E-03
   0.255E+00 -.589E-02 -.608E-02   -.260E+00 0.586E-02 0.616E-02   0.229E-02 -.745E-04 -.755E-04
   -.126E-01 -.679E-02 0.281E-02   0.131E-01 0.682E-02 -.282E-02   -.202E-03 -.963E-04 -.750E-04
   -.141E-01 -.690E-02 -.150E-01   0.146E-01 0.692E-02 0.153E-01   -.210E-03 -.926E-04 -.141E-03
   0.333E-01 -.672E-02 -.486E-02   -.338E-01 0.673E-02 0.493E-02   0.242E-03 -.921E-04 -.830E-04
   -.740E-01 0.398E-01 0.435E-01   0.761E-01 -.398E-01 -.451E-01   -.107E-02 -.307E-04 0.739E-03
   -.751E-01 -.531E-01 -.552E-01   0.772E-01 0.531E-01 0.569E-01   -.108E-02 -.146E-03 -.936E-03
   0.255E+00 -.777E-02 -.627E-02   -.260E+00 0.780E-02 0.637E-02   0.230E-02 -.104E-03 -.869E-04
   -.254E+00 0.707E-02 0.162E+00   0.259E+00 -.806E-02 -.165E+00   -.675E-02 0.880E-03 0.452E-02
   -.256E+00 0.697E-02 -.162E+00   0.261E+00 -.794E-02 0.164E+00   -.680E-02 0.864E-03 -.449E-02
   0.132E+01 0.695E-02 -.955E-02   -.138E+01 -.802E-02 0.101E-01   0.709E-01 0.987E-03 -.520E-03
   -.600E-01 -.447E-01 0.324E-01   0.640E-01 0.458E-01 -.351E-01   -.514E-02 -.203E-02 0.465E-02
   -.631E-01 0.583E-01 -.338E-01   0.672E-01 -.614E-01 0.368E-01   -.528E-02 0.383E-02 -.469E-02
   0.116E+00 0.746E-02 0.164E-02   -.120E+00 -.839E-02 -.168E-02   0.524E-02 0.834E-03 0.486E-04
   -.604E-01 0.587E-01 0.323E-01   0.644E-01 -.618E-01 -.350E-01   -.513E-02 0.386E-02 0.464E-02
   -.628E-01 -.447E-01 -.333E-01   0.670E-01 0.457E-01 0.363E-01   -.531E-02 -.201E-02 -.466E-02
   0.116E+00 0.676E-02 0.127E-02   -.120E+00 -.775E-02 -.128E-02   0.525E-02 0.871E-03 0.339E-04
   0.115E-01 0.406E-01 -.787E-01   -.114E-01 -.412E-01 0.792E-01   0.455E-03 0.277E-03 -.108E-02
   -.612E-01 0.814E-02 -.642E-02   0.635E-01 -.908E-02 0.663E-02   -.288E-02 0.848E-03 -.145E-03
   0.212E-01 -.278E-01 0.853E-01   -.213E-01 0.264E-01 -.858E-01   0.681E-03 0.156E-02 0.121E-02
   0.134E-01 -.268E-01 -.789E-01   -.133E-01 0.254E-01 0.792E-01   0.390E-03 0.152E-02 -.107E-02
   -.620E-01 0.686E-02 -.411E-02   0.645E-01 -.789E-02 0.408E-02   -.297E-02 0.931E-03 -.431E-04
   0.202E-01 0.408E-01 0.826E-01   -.204E-01 -.414E-01 -.832E-01   0.746E-03 0.261E-03 0.112E-02
   -.448E-03 0.697E-02 -.183E-01   0.844E-03 -.795E-02 0.182E-01   -.663E-04 0.842E-03 -.347E-03
   -.303E-01 0.582E-02 -.657E-02   0.329E-01 -.686E-02 0.657E-02   -.335E-02 0.937E-03 -.144E-03
   0.950E-02 0.803E-02 0.246E-01   -.927E-02 -.906E-02 -.248E-01   0.195E-03 0.905E-03 0.488E-03
   -.261E+00 -.804E+00 0.895E+02   0.266E+00 0.816E+00 -.900E+02   -.398E-02 -.140E-01 0.512E+00
   -.129E+00 0.669E-01 0.894E+02   0.131E+00 -.670E-01 -.899E+02   -.397E-02 0.596E-04 0.514E+00
   -.264E+00 0.931E+00 0.894E+02   0.269E+00 -.943E+00 -.899E+02   -.422E-02 0.143E-01 0.516E+00
   0.957E-01 0.672E-01 0.894E+02   -.964E-01 -.673E-01 -.899E+02   0.151E-02 0.676E-04 0.514E+00
   0.269E-02 0.670E-01 0.894E+02   -.160E-02 -.672E-01 -.899E+02   -.264E-02 0.578E-04 0.514E+00
   0.950E-01 0.672E-01 0.894E+02   -.958E-01 -.673E-01 -.899E+02   0.153E-02 0.723E-04 0.514E+00
[...]
   -.585E-01 0.470E-01 0.657E+02   0.658E-01 -.465E-01 -.646E+02   -.598E-02 -.442E-03 -.111E+01
   0.106E+00 0.481E-01 0.657E+02   -.108E+00 -.477E-01 -.646E+02   0.137E-02 -.413E-03 -.111E+01
   0.427E-01 0.574E+00 0.651E+02   -.437E-01 -.575E+00 -.639E+02   0.117E-02 -.604E-04 -.113E+01
   -.255E+00 0.484E-01 0.657E+02   0.262E+00 -.479E-01 -.646E+02   -.541E-02 -.416E-03 -.111E+01
   0.466E-01 -.478E+00 0.663E+02   -.476E-01 0.480E+00 -.652E+02   0.121E-02 -.866E-03 -.110E+01
   0.660E-02 0.236E-02 0.657E+02   -.497E-02 -.193E-02 -.646E+02   -.140E-02 -.371E-03 -.111E+01
   -.173E-01 0.925E-01 0.656E+02   0.192E-01 -.920E-01 -.645E+02   -.156E-02 -.501E-03 -.112E+01
   0.163E+00 0.478E-01 0.657E+02   -.164E+00 -.474E-01 -.646E+02   0.331E-03 -.426E-03 -.111E+01
   0.244E-02 0.928E-01 0.657E+02   -.791E-03 -.923E-01 -.646E+02   -.141E-02 -.500E-03 -.111E+01
   -.153E-01 0.620E-03 0.656E+02   0.171E-01 -.167E-03 -.645E+02   -.154E-02 -.414E-03 -.112E+01
   0.165E+00 0.492E-01 0.657E+02   -.166E+00 -.487E-01 -.646E+02   0.336E-03 -.434E-03 -.111E+01
   -.901E-01 0.477E-01 0.659E+02   0.920E-01 -.472E-01 -.648E+02   -.166E-02 -.451E-03 -.111E+01
   -.108E+00 0.492E-01 0.655E+02   0.110E+00 -.487E-01 -.644E+02   -.178E-02 -.442E-03 -.112E+01
   0.399E+00 0.458E-01 0.657E+02   -.397E+00 -.453E-01 -.646E+02   -.181E-02 -.476E-03 -.111E+01
   0.947E-01 -.283E-01 0.109E-02   -.587E-13 -.387E-12 0.144E-11   -.870E-01 0.206E-01 -.966E-03

 POSITION                                       TOTAL-FORCE (eV/Angst)
      1.72948      0.20030     -0.00150         0.004008     -0.000051     -0.007232
      5.58834      0.20099     -0.00468         0.000647     -0.000051      0.000007
      9.44720      0.20168     -0.00786         0.003986     -0.000047      0.007084
      1.72882      4.05917     -0.00468        -0.000391      0.000813     -0.001217
      5.58768      4.05986     -0.00786         0.000621     -0.000039      0.000041
      9.44654      4.06055     -0.01104        -0.000382     -0.000900      0.001216
      1.72816      7.91804     -0.00786        -0.000384     -0.000913     -0.001207
      5.58702      7.91872     -0.01104         0.000616     -0.000051      0.000028
      9.44588      7.91941     -0.01422        -0.000377      0.000797      0.001218
     -0.19436     -1.72421      6.38168         0.000082     -0.000026     -0.000042
      3.66450     -1.72352      6.37850         0.000108     -0.000104      0.000330
      7.52337     -1.72284      6.37532         0.000082      0.000002     -0.000269
     -0.19502      2.13465      6.37850         0.000072     -0.000051     -0.000055
      3.66384      2.13534      6.37532         0.000094     -0.000002      0.000264
      7.52270      2.13603      6.37214         0.000104     -0.000104     -0.000294
     -0.19568      5.99352      6.37532         0.000048     -0.000065     -0.000053
      3.66318      5.99421      6.37214         0.000027     -0.000046      0.000285
      7.52204      5.99490      6.36896         0.000013     -0.000057     -0.000289
      1.73466      0.20548      6.37832        -0.000495     -0.000028     -0.000157
      5.59352      0.20617      6.37514         0.000488     -0.000024      0.000010
      9.45239      0.20686      6.37196        -0.000520     -0.000005      0.000130
      1.73400      4.06435      6.37514        -0.000095      0.000005      0.000029
      5.59286      4.06504      6.37196         0.000410     -0.000025     -0.000004
      9.45172      4.06573      6.36877        -0.000124     -0.000086     -0.000070
      1.73334      7.92322      6.37196        -0.000073     -0.000067      0.000046
      5.59220      7.92391      6.36877         0.000407     -0.000021      0.000023
      9.45106      7.92460      6.36559        -0.000132      0.000022     -0.000052
     -0.18918     -1.71903     12.76150         0.001040     -0.000113     -0.000784
      3.66968     -1.71834     12.75832         0.001049      0.000037      0.000821
      7.52855     -1.71765     12.75514        -0.002948     -0.000045      0.000004
     -0.18984      2.13984     12.75832         0.000230     -0.000004     -0.000081
      3.66902      2.14052     12.75514         0.000234     -0.000011      0.000148
      7.52788      2.14121     12.75195        -0.000319     -0.000023     -0.000014
     -0.19050      5.99870     12.75514         0.001037      0.000034     -0.000785
      3.66836      5.99939     12.75195         0.001046     -0.000099      0.000823
      7.52722      6.00008     12.74877        -0.002941     -0.000019      0.000011
      3.65889      0.20059     -0.00318        -0.001512     -0.000052      0.001707
      7.51775      0.20128     -0.00636        -0.001554     -0.000054     -0.001725
     11.37662      0.20197     -0.00954         0.007296     -0.000019     -0.000011
      3.65823      4.05946     -0.00636        -0.001162     -0.000868      0.002006
      7.51709      4.06015     -0.00954        -0.001235      0.000837     -0.001615
     11.37595      4.06083     -0.01272         0.001662     -0.000034      0.000001
      3.65757      7.91832     -0.00954        -0.001164      0.000816      0.002001
      7.51643      7.91901     -0.01272        -0.001241     -0.000901     -0.001650
     11.37529      7.91970     -0.01590         0.001668     -0.000064      0.000028
      1.73505     -1.72393      6.38000         0.000442     -0.000239     -0.000601
      5.59392     -1.72324      6.37682        -0.000569     -0.000030      0.000065
      9.45278     -1.72255      6.37364         0.000525      0.000222      0.000758
      1.73439      2.13494      6.37682         0.000407      0.000181     -0.000799
      5.59325      2.13563      6.37364        -0.000583     -0.000036     -0.000069
      9.45211      2.13632      6.37046         0.000546     -0.000264      0.000509
      1.73373      5.99381      6.37364         0.000269     -0.000072     -0.000372
      5.59259      5.99450      6.37046        -0.000739     -0.000043     -0.000145
      9.45145      5.99519      6.36727         0.000367     -0.000066      0.000261
      1.73069      2.13130      1.90875         0.000880     -0.001331     -0.001107
      5.58955      2.13198      1.90557        -0.002075      0.000051      0.000161
      9.44841      2.13267      1.90239         0.000594      0.001620      0.001532
      1.73003      5.99016      1.90557         0.000742     -0.000021      0.000072
      5.58889      5.99085      1.90239        -0.001547     -0.000031      0.000143
      9.44775      5.99154      1.89920         0.000627     -0.000030      0.000247
[...]
      1.73198      5.99209      4.33331        -0.000504      0.000066      0.000690
      5.59084      5.99278      4.33013         0.001177      0.000049      0.000035
      9.44970      5.99347      4.32695        -0.000526      0.000059     -0.000600
      1.73132      9.85096      4.33013         0.000099     -0.000992      0.005132
      5.59018      9.85165      4.32695         0.001112      0.000077      0.000052
      9.44904      9.85234      4.32377         0.000103      0.001152     -0.004969
     -0.19120      0.20871     10.71967         0.000153      0.000117     -0.000766
      3.66767      0.20940     10.71649         0.000211      0.000045      0.000799
      7.52653      0.21009     10.71331        -0.000383      0.000101     -0.000025
     -0.19186      4.06758     10.71649         0.000170      0.000049     -0.000675
      3.66700      4.06827     10.71331         0.000208      0.000097      0.000862
      7.52586      4.06896     10.71013        -0.000371      0.000054      0.000061
     -0.19252      7.92644     10.71331         0.000196      0.000099     -0.000773
      3.66634      7.92713     10.71013         0.000227      0.000107      0.000934
      7.52520      7.92782     10.70695        -0.000018      0.000099      0.000035
    total drift:                                0.007658     -0.007639      0.000126

  FREE ENERGIE OF THE ION-ELECTRON SYSTEM (eV)
  free  energy   TOTEN  =      -657.90164476 eV

  energy  without entropy=     -657.90164476  energy(sigma->0) =     -657.90164476