 vasp.6.2.0 18Jan21 (build Jan 29 2021 15:03:46) complex

 executed on             LinuxIFC date 2021.03.11  18:47:35

 INCAR:
   AEXX = 0.25
   ALGO = all
   EDIFF = 7e-06
   EDIFFG = -0.03
   ENCUT = 520
   GGA = pe
   HFSCREEN = 0.207
   IBRION = 2
   ISIF = 3
   ISMEAR = 0
   ISPIN = 2
   KPAR = 30
   LASPH = .TRUE.
   LHFCALC = .TRUE.
   LMAXFOCK = 4
   LORBIT = 11
   LREAL = .FALSE.
   LVHAR = .TRUE.
   LWAVE = .TRUE.
   MAGMOM = 0.6 0.6 0.6 0.6 0.6 5 5
   NCORE = 1
   NEDOS = 2000
   NELM = 200
   NELMIN = 4
   NSW = 60
   NWRITE = 1
   PREC = accurate
   PRECFOCK = fast
   SIGMA = 0.05
   TIME = 0.3

 POTCAR:    PAW_PBE Li_sv 10Sep2004
 POTCAR:    PAW_PBE O 08Apr2002
 POTCAR:    PAW_PBE S 06Sep2000
 POTCAR:    PAW_PBE Fe_pv 02Aug2007
|           W    W    AA    RRRRR   N    N  II  N    N   GGGG   !!!           |
|           W    W   A  A   R    R  NN   N  II  NN   N  G    G  !!!           |
|           W    W  A    A  R    R  N N  N  II  N N  N  G       !!!           |
|           W WW W  AAAAAA  RRRRR   N  N N  II  N  N N  G  GGG   !            |
|           WW  WW  A    A  R   R   N   NN  II  N   NN  G    G                |
|           W    W  A    A  R    R  N    N  II  N    N   GGGG   !!!           |
|     For optimal performance we recommend to set                             |
|       NCORE = 2 up to number-of-cores-per-socket                            |
|     This setting can greatly improve the performance of VASP for DFT.       |
|     The default, NCORE=1 might be grossly inefficient on modern             |
|     multi-core architectures or massively parallel machines. Do your        |
|     Unfortunately you need to use the default for GW and RPA                |
|     calculations (for HF NCORE is supported but not extensively tested      |
|     yet).                                                                   |

 POTCAR:    PAW_PBE Li_sv 10Sep2004

 POTCAR:    PAW_PBE O 08Apr2002

 POTCAR:    PAW_PBE S 06Sep2000

 POTCAR:    PAW_PBE Fe_pv 02Aug2007

  PAW_PBE Li_sv 10Sep2004               :
  PAW_PBE O 08Apr2002                   :
  PAW_PBE S 06Sep2000                   :
  PAW_PBE Fe_pv 02Aug2007               :

 POSCAR: # Compound: Li2OS2Fe2. Old comment: LFSO
  positions in direct lattice
 exchange correlation table for  LEXCH =        8
   RHO(1)=    0.500       N(1)  =     2000
   RHO(2)=  100.500       N(2)  =     4000

 ion  position               nearest neighbor table
   1  0.056  0.393  1.000-   3 1.93   3 1.93
   2  0.552  0.393  0.000-   3 1.93   3 1.93
   3  0.053  0.895  0.000-   2 1.93   1 1.93   1 1.93   2 1.93   7 2.04   6 2.04
   4  0.703  0.892  0.700-   7 2.43   6 2.70   6 2.72   6 2.75   6 2.77
   5  0.405  0.892  0.300-   6 2.43   7 2.70   7 2.72   7 2.75   7 2.77
   6  0.204  0.905  0.680-   3 2.04   5 2.43   4 2.70   4 2.72   4 2.75   4 2.77
   7  0.891  0.905  0.320-   3 2.04   4 2.43   5 2.70   5 2.72   5 2.75   5 2.77

  LATTYP: Found a base centered monoclinic cell.
 ALAT       =     5.4551801866
 B/A-ratio  =     1.0003500624
 C/A-ratio  =     1.2728859454
 COS(beta)  =    -0.3906656676

  Lattice vectors:

 A1 = (  -2.7275894500,   2.7285449000,   0.0049920900)
 A2 = (  -2.7275816000,  -2.7285449400,   0.0049920800)
 A3 = (   2.7244071700,   0.0000004300,   6.3870393900)

Analysis of symmetry for initial positions (statically):
 Subroutine PRICEL returns:
 Original cell was already a primitive cell.

 Routine SETGRP: Setting up the symmetry group for a
 base centered monoclinic supercell.

 Subroutine GETGRP returns: Found  2 space group operations
 (whereof  2 operations were pure point group operations)
 out of a pool of  4 trial point group operations.

The static configuration has the point symmetry C_2 .

Analysis of symmetry for dynamics (positions and initial velocities):
 Subroutine PRICEL returns:
 Original cell was already a primitive cell.

[...]

The dynamic configuration has the point symmetry C_2 .

Analysis of structural, dynamic, and magnetic symmetry:
 Subroutine PRICEL returns:
 Original cell was already a primitive cell.

 Routine SETGRP: Setting up the symmetry group for a
 base centered monoclinic supercell.

 Subroutine GETGRP returns: Found  2 space group operations
 (whereof  2 operations were pure point group operations)
 out of a pool of  4 trial point group operations.

The overall configuration has the point symmetry C_2 .

 Subroutine INISYM returns: Found  2 space group operations
 (whereof  2 operations are pure point group operations),
 and found     1 'primitive' translations

                                     Primitive cell

  volume of cell :      95.1433

  direct lattice vectors                    reciprocal lattice vectors
     5.455171050  0.000000040 -0.009984170     0.183169313 -0.183247590 -0.078131303
     2.727581600  2.728544940 -0.004992080    -0.000000003  0.366495707 -0.000000024
     2.724407170  0.000000430  6.387039390     0.000286329  0.000000000  0.156444929

  length of vectors
     5.455180187  3.858067365  6.943822189     0.270619986  0.366495707  0.156445191

  position of ions in fractional coordinates (direct lattice)
     0.055649500  0.392756920  0.999617260
     0.551593580  0.392756920  0.000382740
     0.052702390  0.894596230  0.000000000
     0.703168050  0.892299730  0.700216050
     0.404532220  0.892299730  0.299783950
     0.203994290  0.904928740  0.680374080
     0.891076970  0.904928740  0.319625920

  ion indices of the primitive-cell ions
   primitive index   ion index
                 1           1
                 2           2
                 3           3
                 4           4
                 5           5
                 6           6
                 7           7

 KPOINTS: # No comment

Automatic generation of k-mesh.
 Grid dimensions read from file:
 generate k-points for:    6    8    4

 Generating k-lattice:

  Cartesian coordinates                     Fractional coordinates (reciprocal lattice)
     0.030528219 -0.030541265 -0.013021884     0.166666667 -0.000000000 -0.000000000
    -0.000000000  0.045811963 -0.000000003    -0.000000000  0.125000000  0.000000000
     0.000071582  0.000000000  0.039111232     0.000000000  0.000000000  0.250000000

  Length of vectors
     0.045103331  0.045811963  0.039111298

  Shift w.r.t. Gamma in fractional coordinates (k-lattice)
     0.000000000  0.000000000  0.000000000

 WARNING: IBZKPT: internal override: KBLOWUP is changed to .FALSE.
      ... skipping the blow-up phase ...

 Subroutine IBZKPT returns following result:

 Found     90 irreducible k-points:

 Following reciprocal coordinates:
            Coordinates               Weight
  0.000000  0.000000  0.000000      1.000000
  0.166667 -0.000000  0.000000      2.000000
  0.333333 -0.000000 -0.000000      2.000000
  0.500000 -0.000000 -0.000000      2.000000
  0.000000  0.125000 -0.000000      2.000000
  0.166667  0.125000  0.000000      2.000000
  0.333333  0.125000  0.000000      2.000000
  0.500000  0.125000 -0.000000      4.000000
 -0.333333  0.125000  0.000000      2.000000
 -0.166667  0.125000  0.000000      2.000000
  0.000000  0.250000 -0.000000      2.000000
  0.166667  0.250000 -0.000000      2.000000
  0.333333  0.250000  0.000000      2.000000
  0.500000  0.250000 -0.000000      2.000000
 -0.333333  0.250000  0.000000      2.000000
 -0.166667  0.250000  0.000000      2.000000
  0.000000  0.375000 -0.000000      2.000000
  0.166667  0.375000 -0.000000      2.000000
  0.333333  0.375000  0.000000      2.000000
 -0.333333  0.375000  0.000000      2.000000
 -0.166667  0.375000  0.000000      2.000000
  0.000000  0.500000 -0.000000      1.000000
  0.166667  0.500000 -0.000000      2.000000
  0.333333  0.500000  0.000000      2.000000
  0.000000  0.000000  0.250000      2.000000
  0.166667 -0.000000  0.250000      2.000000
  0.333333  0.000000  0.250000      2.000000
  0.500000 -0.000000  0.250000      4.000000
 -0.333333  0.000000  0.250000      2.000000
 -0.166667  0.000000  0.250000      2.000000
  0.000000  0.125000  0.250000      4.000000
  0.166667  0.125000  0.250000      2.000000
  0.333333  0.125000  0.250000      2.000000
  0.500000  0.125000  0.250000      4.000000
 -0.333333  0.125000  0.250000      2.000000
 -0.166667  0.125000  0.250000      2.000000
  0.000000  0.250000  0.250000      4.000000
  0.166667  0.250000  0.250000      2.000000
  0.333333  0.250000  0.250000      2.000000
  0.500000  0.250000  0.250000      2.000000
 -0.333333  0.250000  0.250000      2.000000
 -0.166667  0.250000  0.250000      2.000000
 -0.000000  0.375000  0.250000      4.000000
  0.166667  0.375000  0.250000      2.000000
  0.333333  0.375000  0.250000      2.000000
 -0.333333  0.375000  0.250000      2.000000
 -0.166667  0.375000  0.250000      2.000000
 -0.000000  0.500000  0.250000      2.000000
  0.166667  0.500000  0.250000      2.000000
  0.333333  0.500000  0.250000      2.000000
 -0.333333  0.500000  0.250000      2.000000
 -0.166667  0.500000  0.250000      2.000000
  0.166667 -0.375000  0.250000      2.000000
  0.333333 -0.375000  0.250000      2.000000
  0.500000 -0.375000  0.250000      4.000000
 -0.333333 -0.375000  0.250000      2.000000
 -0.166667 -0.375000  0.250000      2.000000
  0.166667 -0.250000  0.250000      2.000000
  0.333333 -0.250000  0.250000      2.000000
  0.500000 -0.250000  0.250000      2.000000
[...]
 -0.166667  0.125000  0.500000      2.000000
  0.000000  0.250000  0.500000      2.000000
  0.166667  0.250000  0.500000      2.000000
  0.333333  0.250000  0.500000      2.000000
  0.500000  0.250000  0.500000      2.000000
 -0.333333  0.250000  0.500000      2.000000
 -0.166667  0.250000  0.500000      2.000000
 -0.000000  0.375000  0.500000      2.000000
  0.166667  0.375000  0.500000      2.000000
  0.333333  0.375000  0.500000      2.000000
 -0.333333  0.375000  0.500000      2.000000
 -0.166667  0.375000  0.500000      2.000000
 -0.000000  0.500000  0.500000      1.000000
  0.166667  0.500000  0.500000      2.000000
  0.333333  0.500000  0.500000      2.000000

 Following cartesian coordinates:
            Coordinates               Weight
  0.000000  0.000000  0.000000      1.000000
  0.030528 -0.030541 -0.013022      2.000000
  0.061056 -0.061083 -0.026044      2.000000
  0.091585 -0.091624 -0.039066      2.000000
 -0.000000  0.045812 -0.000000      2.000000
  0.030528  0.015271 -0.013022      2.000000
  0.061056 -0.015271 -0.026044      2.000000
  0.091585 -0.045812 -0.039066      4.000000
 -0.061056  0.106894  0.026044      2.000000
 -0.030528  0.076353  0.013022      2.000000
 -0.000000  0.091624 -0.000000      2.000000
  0.030528  0.061083 -0.013022      2.000000
  0.061056  0.030541 -0.026044      2.000000
  0.091585  0.000000 -0.039066      2.000000
 -0.061056  0.152706  0.026044      2.000000
 -0.030528  0.122165  0.013022      2.000000
 -0.000000  0.137436 -0.000000      2.000000
  0.030528  0.106895 -0.013022      2.000000
  0.061056  0.076353 -0.026044      2.000000
 -0.061056  0.198518  0.026044      2.000000
 -0.030528  0.167977  0.013022      2.000000
 -0.000000  0.183248 -0.000000      1.000000
  0.030528  0.152707 -0.013022      2.000000
[...]
      1     -56.1973      1.00000
      2     -56.1950      1.00000
      3     -54.6377      1.00000
      4     -54.6376      1.00000
      5     -54.6362      1.00000
      6     -54.6360      1.00000
      7     -43.3196      1.00000
      8     -43.2659      1.00000
      9     -15.3692      1.00000
     10      -9.6736      1.00000
     11      -8.8812      1.00000
     12      -2.6055      1.00000
     13      -1.3624      1.00000
     14      -1.3621      1.00000
     15      -1.2170      1.00000
     16      -0.7266      1.00000
     17      -0.7258      1.00000
     18      -0.1933      1.00000
     19      -0.0356      1.00000
     20       0.5453      1.00000
     21       0.5504      1.00000
     22       0.8425      1.00000
     23       0.9731      1.00000
     24       0.9736      1.00000
     25       1.6480      1.00000
     26       2.1304      1.00000
     27       2.1310      1.00000
     28       3.0989      1.00000
     29       3.3351      1.00000
     30       3.3352      1.00000
     31       8.2511      0.00000
     32       9.4790      0.00000
     33      11.2682      0.00000
     34      12.6480      0.00000
     35      12.8209      0.00000
     36      14.6422      0.00000
     37      14.6486      0.00000
     38      14.9615      0.00000
     39      15.1006      0.00000
     40      15.3891      0.00000

[...]

 k-point    90 :       0.3333    0.5000    0.5000
  band No.  band energies     occupation
      1     -56.1962      1.00000
      2     -56.1959      1.00000
      3     -54.6381      1.00000
      4     -54.6380      1.00000
      5     -54.6369      1.00000
      6     -54.6367      1.00000
      7     -43.2925      1.00000
      8     -43.2910      1.00000
      9     -15.4330      1.00000
     10      -8.9164      1.00000
     11      -8.7547      1.00000
     12      -2.4785      1.00000
     13      -1.7208      1.00000
     14      -1.5469      1.00000
     15      -1.2997      1.00000
     16      -1.2078      1.00000
     17      -0.9463      1.00000
     18      -0.8130      1.00000
     19      -0.6503      1.00000
     20      -0.3023      1.00000
     21       0.3405      1.00000
     22       0.9240      1.00000
     23       1.1075      1.00000
     24       1.2022      1.00000
     25       1.4372      1.00000
     26       1.5862      1.00000
     27       3.1593      1.00000
     28       3.3428      1.00000
     29       3.4724      1.00000
     30       3.8756      1.00000
     31      10.0883      0.00000
     32      10.3216      0.00000
     33      10.5796      0.00000
     34      11.0135      0.00000
     35      12.0002      0.00000
     36      12.4674      0.00000
     37      13.8128      0.00000
     38      14.2699      0.00000
     39      14.6777      0.00000
     40      15.4921      0.00000
 Fermi energy:         4.6634620928

[...]

 soft charge-density along one line, spin component           1
         0         1         2         3         4         5         6         7         8         9
 total charge-density along one line

[...]

------------------------ aborting loop because EDIFF is reached ----------------------------------------

 total charge

# of ion       s       p       d       tot
    1        2.023   0.070   0.000   2.093
    2        2.023   0.070   0.000   2.093
    3        1.552   3.538   0.000   5.090
    4        1.311   2.452   0.000   3.762
    5        1.311   2.452   0.000   3.762
    6        0.229   6.203   5.889  12.321
    7        0.229   6.203   5.889  12.321
tot          8.678  20.987  11.777  41.442

 magnetization (x)

[...]

  FORCE on cell =-STRESS in cart. coord.  units (eV):
  Direction    XX          YY          ZZ          XY          YZ          ZX
  Alpha Z   146.41093   146.41093   146.41093
  Ewald   -1468.21813 -1468.32331  -908.37340     0.00055     0.00001     6.00105
  Hartree   528.80856   528.65081   877.93801     0.00099    -0.00260     5.09494
  E(xc)    -212.64159  -212.64175  -212.22467     0.00001     0.00001     0.00198
  Local      86.94870    87.22478  -776.37660    -0.00137     0.00646   -10.81862
  n-local   221.44922   221.46134   224.20861     0.32129    -0.03060    -0.04558
  augment   271.31583   271.30831   243.74638     0.00119    -0.00311    -0.24484
  Kinetic   663.86979   663.85321   629.34476     0.24869    -0.02704    -0.04671
  Fock     -239.13292  -239.12888  -227.13860     0.07952     0.00302     0.09262
  Total      -1.18960    -1.18457    -2.46458     0.00000    -0.00000     0.03485
  in kB     -20.03250   -19.94772   -41.50259     0.00003    -0.00000     0.58686

 VOLUME and BASIS-vectors are now :
  energy-cutoff  :      520.00
  volume of cell :       95.14
      direct lattice vectors                 reciprocal lattice vectors
     5.455171050  0.000000040 -0.009984170     0.183169313 -0.183247590 -0.078131303
     2.727581600  2.728544940 -0.004992080    -0.000000003  0.366495707 -0.000000024
     2.724407170  0.000000430  6.387039390     0.000286329  0.000000000  0.156444929

[...]

 FORCES acting on ions:
    Electron-Ion                     Ewald-Force                    Non-Local-Force
   -.121E+01 0.498E+00 -.115E+00   0.123E+01 -.459E+00 0.117E+00   -.350E-01 -.407E-01 0.158E-02
   0.121E+01 0.499E+00 0.115E+00   -.123E+01 -.459E+00 -.117E+00   0.350E-01 -.407E-01 -.158E-02
   -.826E-03 0.368E+01 -.139E-03   0.109E-03 -.378E+01 -.124E-04   -.141E-06 0.981E-01 0.180E-09
   0.342E+01 -.434E+01 -.886E+02   -.347E+01 0.439E+01 0.891E+02   0.690E-01 -.487E-01 -.561E+00
   -.342E+01 -.434E+01 0.886E+02   0.347E+01 0.439E+01 -.891E+02   -.690E-01 -.487E-01 0.561E+00
   -.297E+01 0.245E+01 0.659E+02   0.286E+01 -.204E+01 -.646E+02   0.129E+00 -.379E+00 -.106E+01
   0.297E+01 0.245E+01 -.659E+02   -.286E+01 -.204E+01 0.646E+02   -.129E+00 -.379E+00 0.106E+01
   -.519E-03 0.896E+00 -.194E-03   -.311E-14 -.400E-14 0.426E-13   0.121E-05 -.839E+00 -.154E-08

 POSITION                                       TOTAL-FORCE (eV/Angst)
      4.09822      1.07166      6.38208        -0.009870     -0.000354      0.003245
      4.08136      1.07165     -0.00502         0.009870     -0.000354     -0.003245
      2.72758      2.44095     -0.00499        -0.000000      0.015677      0.000000
      8.17740      2.43468      4.46083         0.021135     -0.002060     -0.133048
      5.45735      2.43468      1.90624        -0.021135     -0.002060      0.133048
      5.43471      2.46914      4.33902         0.021693     -0.005424      0.136735
      8.20004      2.46914      2.02805        -0.021693     -0.005424     -0.136735
    total drift:                               -0.000517      0.000246     -0.000194

  FREE ENERGIE OF THE ION-ELECTRON SYSTEM (eV)
  free  energy   TOTEN  =       -53.59785732 eV

  energy  without entropy=      -53.59785732  energy(sigma->0) =      -53.59785732

 writing wavefunctions

[...]

  free energy =  -0.528867838694E+02  energy without entropy=  -0.528867838694E+02

[...]

 d Force = 0.1078491E-02[-0.141E-02, 0.357E-02]  d Energy = 0.2587540E-01-0.248E-01
 d Force =-0.2039425E+01[-0.211E+01,-0.197E+01]  d Ewald  = 0.3771404E+02-0.398E+02

 Steepest descent step on ions:
 trial-energy change:   -0.025875  1 .order   -0.024904   -0.064928    0.015120
  (g-gl).g = 0.649E-01      g.g   = 0.649E-01  gl.gl    = 0.000E+00
 g(Force)  = 0.363E-02   g(Stress)= 0.613E-01 ortho     = 0.000E+00
 gamma     =   0.00000
 trial     =   1.00000
 opt step  =   0.82178  (harmonic =   0.81112) maximal distance =0.00542084
 next E    =   -53.625075   (d E  =  -0.02722)

[...]

 d Force = 0.1749284E-03[ 0.936E-04, 0.256E-03]  d Energy = 0.1351649E-02-0.118E-02
 d Force = 0.3816986E+00[ 0.379E+00, 0.384E+00]  d Ewald  =-0.6752820E+01 0.713E+01

[...]

 d Force =-0.1171532E-05[-0.105E-05,-0.130E-05]  d Energy = 0.3950249E-05-0.512E-05
 d Force =-0.5254549E-02[-0.526E-02,-0.525E-02]  d Ewald  = 0.9374892E-01-0.990E-01

 writing wavefunctions

[...]

 eigenvalue-minimisations  :     0
 total energy-change (2. order) : 0.3917770E-02  (-0.2691256E-02)
 number of electron      51.9999991 magnetization       7.9999996
 augmentation part       17.9400820 magnetization       5.3099468

[...]

--------------------------------------- Iteration      5(   8)  ---------------------------------------

 eigenvalue-minimisations  :     0
 total energy-change (2. order) :-0.3863705E-05  (-0.1922710E-05)
 number of electron      51.9999991 magnetization       7.9999996
 augmentation part       17.9430205 magnetization       5.3091069

  free energy =  -0.536253750693E+02  energy without entropy=  -0.536253750693E+02

  average scaling for gradient   1.0258

 average (electrostatic) potential at core
  the test charge radii are     0.7079  0.7215  0.9698  0.9500
  (the norm of the test charge is              1.0000)
       1 -52.8135       2 -52.8135       3 -63.0947       4 -81.7887       5 -81.7886
       6 -71.1790       7 -71.1790

 E-fermi :   5.0291     XC(G=0):  -8.7293     alpha+bet :-12.7802

 Fermi energy:         5.0291183745

[...]

 k-point    90 :       0.3333    0.5000    0.5000
  band No.  band energies     occupation
      1     -55.8547      1.00000
      2     -55.8543      1.00000
      3     -54.3083      1.00000
      4     -54.3068      1.00000
      5     -54.3063      1.00000
      6     -54.3049      1.00000
      7     -43.0393      1.00000
      8     -43.0378      1.00000
      9     -15.3774      1.00000
     10      -8.7477      1.00000
     11      -8.5683      1.00000
     12      -2.3888      1.00000
     13      -1.5612      1.00000
     14      -1.3666      1.00000
     15      -1.1084      1.00000
     16      -1.0026      1.00000
     17      -0.6876      1.00000
     18      -0.5522      1.00000
     19      -0.3995      1.00000
     20       0.0050      1.00000
     21       0.6411      1.00000
     22       1.2029      1.00000
     23       1.3693      1.00000
     24       1.5152      1.00000
     25       1.7073      1.00000
     26       1.8314      1.00000
     27       3.4638      1.00000
     28       3.6531      1.00000
     29       3.7619      1.00000
     30       4.2244      1.00000
     31      10.4788      0.00000
     32      10.7068      0.00000
     33      10.9365      0.00000
     34      11.3514      0.00000
     35      12.3280      0.00000
     36      12.8441      0.00000
     37      14.1960      0.00000
     38      14.6986      0.00000
     39      15.1305      0.00000
     40      16.0200      0.00000
 Fermi energy:         5.0291183745

 spin component 2

[...]

 k-point    90 :       0.3333    0.5000    0.5000
  band No.  band energies     occupation
      1     -49.2003      1.00000
      2     -49.2000      1.00000
      3     -49.1661      1.00000
      4     -49.1652      1.00000
      5     -49.1633      1.00000
      6     -49.1626      1.00000
      7     -43.0408      1.00000
      8     -43.0393      1.00000
      9     -14.9720      1.00000
     10      -8.4392      1.00000
     11      -8.2561      1.00000
     12      -1.3204      1.00000
     13      -0.3743      1.00000
     14       0.0509      1.00000
     15       0.8055      1.00000
     16       0.8255      1.00000
     17       1.9870      1.00000
     18       2.0212      1.00000
     19       2.5012      1.00000
     20       2.7883      1.00000
     21       4.1529      1.00000
     22       4.1798      1.00000
     23       7.7163      0.00000
     24       7.9246      0.00000
     25       8.5356      0.00000
     26       8.7372      0.00000
     27       8.8495      0.00000
     28       9.2336      0.00000
     29       9.6639      0.00000
     30       9.8209      0.00000
     31      11.3014      0.00000
     32      11.5552      0.00000
     33      11.8379      0.00000
     34      12.2191      0.00000
     35      13.1821      0.00000
     36      13.5696      0.00000
     37      14.6168      0.00000
     38      15.3422      0.00000
     39      15.7137      0.00000
     40      16.6581      0.00000

[...]

 soft charge-density along one line, spin component           2
         0         1         2         3         4         5         6         7         8         9
 total charge-density along one line

------------------------ aborting loop because EDIFF is reached ----------------------------------------

[...]

  FORCE on cell =-STRESS in cart. coord.  units (eV):
  Direction    XX          YY          ZZ          XY          YZ          ZX
  Alpha Z   150.57232   150.57232   150.57232
  Ewald   -1490.72275 -1490.92939  -895.12999     0.00056     0.00001     6.05317
  Hartree   517.90753   517.70354   885.01448     0.00068     0.00004     4.94153
  E(xc)    -212.90655  -212.90680  -212.47435     0.00001    -0.00001     0.00293
  Local     115.44303   115.87136  -801.15015    -0.00056    -0.00016   -10.64265
  n-local   221.27408   221.28328   224.76468     0.31963    -0.02957    -0.05033
  augment   271.08235   271.07189   243.71501     0.00097    -0.00003    -0.28003
  Kinetic   666.40134   666.38198   631.80900     0.22750    -0.02035    -0.11784
  Fock     -239.04491  -239.04028  -227.13461     0.08186     0.00215     0.10801
  Total       0.00643     0.00792    -0.01360    -0.00000    -0.00000     0.01477
  in kB       0.11141     0.13713    -0.23555    -0.00000    -0.00000     0.25579

 VOLUME and BASIS-vectors are now :
  energy-cutoff  :      520.00
  volume of cell :       92.51
      direct lattice vectors                 reciprocal lattice vectors
     5.417755554  0.000000093 -0.007919702     0.184462327 -0.184503148 -0.079323572
     2.708873905  2.709977042 -0.003959850    -0.000000006  0.369006822 -0.000000024
     2.707965058  0.000000448  6.297213293     0.000231989  0.000000000  0.158700640

  length of vectors
     5.417761342  3.831708376  6.854777167     0.272690284  0.369006822  0.158700810

 FORCES acting on ions:
    Electron-Ion                     Ewald-Force                    Non-Local-Force
   -.140E+01 0.366E+00 -.990E-01   0.142E+01 -.335E+00 0.998E-01   -.250E-01 -.291E-01 0.192E-02
   0.140E+01 0.366E+00 0.990E-01   -.142E+01 -.336E+00 -.998E-01   0.250E-01 -.291E-01 -.192E-02
   -.792E-03 0.393E+01 0.203E-04   0.130E-03 -.405E+01 -.129E-04   -.143E-06 0.100E+00 0.384E-10
   0.330E+01 -.432E+01 -.898E+02   -.335E+01 0.437E+01 0.902E+02   0.503E-01 -.408E-01 -.330E+00
   -.330E+01 -.432E+01 0.898E+02   0.335E+01 0.437E+01 -.902E+02   -.503E-01 -.408E-01 0.330E+00
   -.281E+01 0.238E+01 0.749E+02   0.270E+01 -.201E+01 -.736E+02   0.120E+00 -.355E+00 -.114E+01
   0.281E+01 0.238E+01 -.749E+02   -.270E+01 -.201E+01 0.736E+02   -.120E+00 -.355E+00 0.114E+01
   -.700E-03 0.799E+00 -.710E-04   -.711E-14 0.888E-15 -.711E-13   0.107E-05 -.749E+00 -.287E-09

 POSITION                                       TOTAL-FORCE (eV/Angst)
      4.07167      1.06444      6.29310        -0.003819      0.002698      0.002803
      4.05405      1.06444     -0.00380         0.003819      0.002698     -0.002803
      2.70888      2.42514     -0.00396        -0.000000      0.000072      0.000000
      8.12436      2.41818      4.39757         0.010737      0.003577      0.027546
      5.41911      2.41818      1.88380        -0.010737      0.003577     -0.027546
      5.40084      2.45179      4.28527         0.017335     -0.006311     -0.007996
      8.14263      2.45179      1.99610        -0.017335     -0.006311      0.007996
    total drift:                               -0.000699     -0.000516     -0.000071

  FREE ENERGIE OF THE ION-ELECTRON SYSTEM (eV)
  free  energy   TOTEN  =       -53.62537507 eV

  energy  without entropy=      -53.62537507  energy(sigma->0) =      -53.62537507

 d Force = 0.2694665E-03[ 0.183E-03, 0.356E-03]  d Energy = 0.2867582E-03-0.173E-04
 d Force = 0.3514605E+00[ 0.348E+00, 0.355E+00]  d Ewald  = 0.8123880E+00-0.461E+00

 Conjugate gradient step on ions:
 trial-energy change:   -0.000287  1 .order   -0.000279   -0.000368   -0.000189
  (g-gl).g = 0.369E-03      g.g   = 0.382E-03  gl.gl    = 0.649E-01
 g(Force)  = 0.371E-03   g(Stress)= 0.104E-04 ortho     = 0.127E-04
 gamma     =   0.00568
 trial     =   0.96485
 opt step  =   1.98573  (harmonic =   1.98573) maximal distance =0.00506442
 next E    =   -53.625467   (d E  =  -0.00038)

 reached required accuracy - stopping structural energy minimisation
 writing wavefunctions

 total charge

[...]

 magnetization (x)

# of ion       s       p       d       tot
    1       -0.000   0.000   0.000  -0.000
    2       -0.000   0.000   0.000  -0.000
    3        0.011   0.127   0.000   0.138
    4        0.019   0.098   0.000   0.118
    5        0.019   0.098   0.000   0.118
    6        0.037   0.025   3.566   3.627
    7        0.037   0.025   3.566   3.627
tot          0.122   0.374   7.131   7.627