 vasp.6.2.0 18Jan21 (build Jan 29 2021 15:03:46) complex

 executed on             LinuxIFC date 2021.03.29  14:06:10

 INCAR:
   AEXX = 0.25
   ALGO = all
   EDIFF = 1.1e-05
   EDIFFG = -0.03
   ENCUT = 520
   GGA = pe
   HFSCREEN = 0.207
   IBRION = 2
   ISIF = 3
   ISMEAR = 0
   ISPIN = 2
   KPAR = 26
   LASPH = .TRUE.
   LHFCALC = .TRUE.
   LMAXFOCK = 4
   LORBIT = 11
   LREAL = .FALSE.
   LVHAR = .TRUE.
   LWAVE = .TRUE.
   MAGMOM = 0.6 0.6 0.6 0.6 0.6 0.6 0.6 5 5 5 5
   NCORE = 1
   NEDOS = 2000
   NELM = 200
   NELMIN = 4
   NSW = 60
   NWRITE = 1
   PREC = accurate
   PRECFOCK = fast
   SIGMA = 0.05
   TIME = 0.3

 POTCAR:    PAW_PBE Li_sv 10Sep2004
 POTCAR:    PAW_PBE O 08Apr2002
 POTCAR:    PAW_PBE S 06Sep2000
 POTCAR:    PAW_PBE Fe_pv 02Aug2007
|           W    W    AA    RRRRR   N    N  II  N    N   GGGG   !!!           |
|           W    W   A  A   R    R  NN   N  II  NN   N  G    G  !!!           |
|           W    W  A    A  R    R  N N  N  II  N N  N  G       !!!           |
|           W WW W  AAAAAA  RRRRR   N  N N  II  N  N N  G  GGG   !            |
|           WW  WW  A    A  R   R   N   NN  II  N   NN  G    G                |
|           W    W  A    A  R    R  N    N  II  N    N   GGGG   !!!           |
|     For optimal performance we recommend to set                             |
|       NCORE = 2 up to number-of-cores-per-socket                            |
|     This setting can greatly improve the performance of VASP for DFT.       |
|     The default, NCORE=1 might be grossly inefficient on modern             |
|     multi-core architectures or massively parallel machines. Do your        |
|     Unfortunately you need to use the default for GW and RPA                |
|     calculations (for HF NCORE is supported but not extensively tested      |
|     yet).                                                                   |

 POTCAR:    PAW_PBE Li_sv 10Sep2004

 POTCAR:    PAW_PBE O 08Apr2002

 POTCAR:    PAW_PBE S 06Sep2000

 POTCAR:    PAW_PBE Fe_pv 02Aug2007

  PAW_PBE Li_sv 10Sep2004               :
  PAW_PBE O 08Apr2002                   :
  PAW_PBE S 06Sep2000                   :
  PAW_PBE Fe_pv 02Aug2007               :

 POSCAR: # Compound: Li2O2S3Fe4. Old comment: LFS
  positions in direct lattice
 exchange correlation table for  LEXCH =        8
   RHO(1)=    0.500       N(1)  =     2000
   RHO(2)=  100.500       N(2)  =     4000

 ion  position               nearest neighbor table
   1  0.611  0.727  0.835-   4 1.99   4 2.00   7 2.58   7 2.59
   2  0.273  0.389  0.165-   3 1.99   3 2.00   7 2.58   7 2.59
   3  0.790  0.406  0.196-   2 1.99   2 2.00  11 2.01   8 2.01  11 2.01
   4  0.594  0.210  0.804-   1 1.99   1 2.00  10 2.01   9 2.01  10 2.01
   5  0.009  0.616  0.629-   8 2.41   9 2.64   9 2.73
   6  0.384  0.991  0.371-   9 2.41   8 2.64   8 2.73
   7  0.192  0.808  0.000-  10 2.53  11 2.53  10 2.53  11 2.53   2 2.58   1 2.58   2 2.59   1 2.59

   8  0.857  0.519  0.393-   3 2.01   5 2.41   6 2.64   6 2.73
   9  0.481  0.143  0.607-   4 2.01   6 2.41   5 2.64   5 2.73
  10  0.114  0.229  0.844-   4 2.01   4 2.01   7 2.53   7 2.53
  11  0.771  0.886  0.156-   3 2.01   3 2.01   7 2.53   7 2.53

  Warning from LATTYP: Got some problem with cell dimensions!
  Tried to take original basis but could not verify dimensions!
  LATTYP: Found a base centered monoclinic cell.
 ALAT       =     5.5491602820
 B/A-ratio  =     1.0044021124
 C/A-ratio  =     1.9032187241
 COS(beta)  =    -0.2609418365

  Lattice vectors:

 A1 = (  -3.9324192900,   0.0022389800,  -0.0242927000)
 A2 = (   0.0151846200,  -3.9323906100,  -0.0242927000)
 A3 = (   1.8823979400,   1.8886050900,  10.2191038300)

Analysis of symmetry for initial positions (statically):
 Subroutine PRICEL returns:
 Original cell was already a primitive cell.

 Routine SETGRP: Setting up the symmetry group for a
 base centered monoclinic supercell.

 Subroutine GETGRP returns: Found  2 space group operations
 (whereof  2 operations were pure point group operations)
 out of a pool of  4 trial point group operations.

The static configuration has the point symmetry C_2 .

Analysis of symmetry for dynamics (positions and initial velocities):
 Subroutine PRICEL returns:
 Original cell was already a primitive cell.

[...]

The dynamic configuration has the point symmetry C_2 .

Analysis of structural, dynamic, and magnetic symmetry:
 Subroutine PRICEL returns:
 Original cell was already a primitive cell.

 Routine SETGRP: Setting up the symmetry group for a
 base centered monoclinic supercell.

 Subroutine GETGRP returns: Found  2 space group operations
 (whereof  2 operations were pure point group operations)
 out of a pool of  4 trial point group operations.

The overall configuration has the point symmetry C_2 .

 Subroutine INISYM returns: Found  2 space group operations
 (whereof  2 operations are pure point group operations),
 and found     1 'primitive' translations

                                     Primitive cell

  volume of cell :     157.6649

  direct lattice vectors                    reciprocal lattice vectors
     3.932419290 -0.002238980  0.024292700     0.253982026  0.000665993  0.050948397
    -0.015184620  3.932390610  0.024292700    -0.000170127  0.253982842  0.050948397
    -2.034836730 -2.041546540 10.170518430    -0.000606240 -0.000608239  0.098080020

  length of vectors
     3.932494961  3.932494961 10.571088777     0.259042568  0.259042568  0.098083780

  position of ions in fractional coordinates (direct lattice)
     0.610653320  0.727303470  0.835207750
     0.272696530  0.389346680  0.164792250
     0.790481320  0.406218590  0.196430270
     0.593781410  0.209518680  0.803569730
     0.009075620  0.616074690  0.629066560
     0.383925310  0.990924380  0.370933440
     0.192173950  0.807826050  0.000000000
     0.856863140  0.519087200  0.393194960
     0.480912800  0.143136860  0.606805040
     0.113855560  0.228814950  0.844277150
     0.771185050  0.886144440  0.155722850

  ion indices of the primitive-cell ions
   primitive index   ion index
                 1           1
                 2           2
                 3           3
                 4           4
                 5           5
                 6           6
                 7           7
                 8           8
                 9           9
                10          10
                11          11

 KPOINTS: # No comment

Automatic generation of k-mesh.
 Grid dimensions read from file:
 generate k-points for:    6    6    2

 Generating k-lattice:

  Cartesian coordinates                     Fractional coordinates (reciprocal lattice)
     0.042330338  0.000110999  0.008491400     0.166666667 -0.000000000 -0.000000000
    -0.000028355  0.042330474  0.008491400     0.000000000  0.166666667  0.000000000
    -0.000303120 -0.000304120  0.049040010    -0.000000000  0.000000000  0.500000000

  Length of vectors
     0.043173761  0.043173761  0.049041890

  Shift w.r.t. Gamma in fractional coordinates (k-lattice)
     0.000000000  0.000000000  0.000000000

 Subroutine IBZKPT returns following result:

 Found     26 irreducible k-points:

 Following reciprocal coordinates:
            Coordinates               Weight
  0.000000  0.000000  0.000000      1.000000
  0.166667  0.000000  0.000000      4.000000
  0.333333  0.000000  0.000000      4.000000
  0.500000  0.000000  0.000000      2.000000
  0.166667  0.166667 -0.000000      2.000000
  0.333333  0.166667 -0.000000      4.000000
  0.500000  0.166667 -0.000000      4.000000
 -0.333333  0.166667 -0.000000      4.000000
 -0.166667  0.166667  0.000000      2.000000
  0.333333  0.333333 -0.000000      2.000000
  0.500000  0.333333  0.000000      4.000000
 -0.333333  0.333333  0.000000      2.000000
  0.500000  0.500000 -0.000000      1.000000
  0.000000 -0.000000  0.500000      1.000000
  0.166667 -0.000000  0.500000      4.000000
  0.333333  0.000000  0.500000      4.000000
  0.500000  0.000000  0.500000      2.000000
  0.166667  0.166667  0.500000      2.000000
  0.333333  0.166667  0.500000      4.000000
  0.500000  0.166667  0.500000      4.000000
 -0.333333  0.166667  0.500000      4.000000
 -0.166667  0.166667  0.500000      2.000000
  0.333333  0.333333  0.500000      2.000000
  0.500000  0.333333  0.500000      4.000000
 -0.333333  0.333333  0.500000      2.000000
  0.500000  0.500000  0.500000      1.000000

 Following cartesian coordinates:
            Coordinates               Weight
  0.000000  0.000000  0.000000      1.000000
  0.042330  0.000111  0.008491      4.000000
  0.084661  0.000222  0.016983      4.000000
  0.126991  0.000333  0.025474      2.000000
  0.042302  0.042441  0.016983      2.000000
  0.084632  0.042552  0.025474      4.000000
  0.126963  0.042663  0.033966      4.000000
 -0.084689  0.042108 -0.008491      4.000000
 -0.042359  0.042219 -0.000000      2.000000
  0.084604  0.084883  0.033966      2.000000
  0.126934  0.084994  0.042457      4.000000
 -0.084717  0.084439 -0.000000      2.000000
  0.126906  0.127324  0.050948      1.000000
 -0.000303 -0.000304  0.049040      1.000000
  0.042027 -0.000193  0.057531      4.000000
  0.084358 -0.000082  0.066023      4.000000
  0.126688  0.000029  0.074514      2.000000
  0.041999  0.042137  0.066023      2.000000
  0.084329  0.042248  0.074514      4.000000
  0.126660  0.042359  0.083006      4.000000
 -0.084992  0.041804  0.040549      4.000000
 -0.042662  0.041915  0.049040      2.000000
  0.084301  0.084579  0.083006      2.000000
  0.126631  0.084690  0.091497      4.000000
 -0.085021  0.084135  0.049040      2.000000
  0.126603  0.127020  0.099988      1.000000

 Subroutine IBZKPT_HF returns following result:

 Found     72 k-points in 1st BZ
 the following     72 k-points will be used (e.g. in the exchange kernel)
 Following reciprocal coordinates:   # in IRBZ
  0.000000  0.000000  0.000000    0.01388889   1 t-inv F
  0.166667  0.000000  0.000000    0.01388889   2 t-inv F
  0.333333  0.000000  0.000000    0.01388889   3 t-inv F
  0.500000  0.000000  0.000000    0.01388889   4 t-inv F
  0.166667  0.166667 -0.000000    0.01388889   5 t-inv F
  0.333333  0.166667 -0.000000    0.01388889   6 t-inv F
  0.500000  0.166667 -0.000000    0.01388889   7 t-inv F
 -0.333333  0.166667 -0.000000    0.01388889   8 t-inv F
 -0.166667  0.166667  0.000000    0.01388889   9 t-inv F
  0.333333  0.333333 -0.000000    0.01388889  10 t-inv F
  0.500000  0.333333  0.000000    0.01388889  11 t-inv F
 -0.333333  0.333333  0.000000    0.01388889  12 t-inv F
  0.500000  0.500000 -0.000000    0.01388889  13 t-inv F
  0.000000 -0.000000  0.500000    0.01388889  14 t-inv F
  0.166667 -0.000000  0.500000    0.01388889  15 t-inv F
  0.333333  0.000000  0.500000    0.01388889  16 t-inv F
  0.500000  0.000000  0.500000    0.01388889  17 t-inv F
  0.166667  0.166667  0.500000    0.01388889  18 t-inv F
  0.333333  0.166667  0.500000    0.01388889  19 t-inv F
  0.500000  0.166667  0.500000    0.01388889  20 t-inv F
 -0.333333  0.166667  0.500000    0.01388889  21 t-inv F
 -0.166667  0.166667  0.500000    0.01388889  22 t-inv F
  0.333333  0.333333  0.500000    0.01388889  23 t-inv F
[...]

[...]

  FORCE on cell =-STRESS in cart. coord.  units (eV):
  Direction    XX          YY          ZZ          XY          YZ          ZX
  Alpha Z   288.99538   288.99538   288.99538
  Ewald   -2450.90596 -2450.93678 -2312.70494    -4.68167   -40.74477   -40.61085
  Hartree  1246.46582  1246.45261  1300.07385    -1.86964   -29.91233   -29.81400
  E(xc)    -387.84751  -387.84754  -387.77601    -0.00490    -0.01203    -0.01199
  Local    -301.71218  -301.66937  -475.76930     6.17762    69.89125    69.66148
  n-local   431.17638   434.50113   436.48267    -0.13668    -0.01763     0.01791
  augment   513.47312   513.47331   502.18479     0.18322     0.43776     0.43567
  Kinetic  1137.25289  1148.18611  1126.55124     0.46003     0.51452     0.55147
  Fock     -487.60079  -486.15789  -481.40338    -0.11981    -0.16898    -0.18531
  Total      -2.85305    -2.85284    -3.36569     0.03207     0.01660     0.01563
  in kB     -28.99242   -28.99028   -34.20190     0.32591     0.16874     0.15888

 VOLUME and BASIS-vectors are now :
  energy-cutoff  :      520.00
  volume of cell :      157.66
      direct lattice vectors                 reciprocal lattice vectors
     3.932419290 -0.002238980  0.024292700     0.253982026  0.000665993  0.050948397
    -0.015184620  3.932390610  0.024292700    -0.000170127  0.253982842  0.050948397
    -2.034836730 -2.041546540 10.170518430    -0.000606240 -0.000608239  0.098080020

[...]

 FORCES acting on ions:
    Electron-Ion                     Ewald-Force                    Non-Local-Force
   -.192E+00 -.917E+00 -.344E+02   0.206E+00 0.100E+01 0.343E+02   -.149E-01 -.876E-01 0.106E+00
   0.916E+00 0.195E+00 0.344E+02   -.100E+01 -.210E+00 -.343E+02   0.875E-01 0.152E-01 -.106E+00
   -.115E+02 0.331E+01 0.125E+03   0.120E+02 -.344E+01 -.130E+03   -.452E+00 0.122E+00 0.434E+01
   -.334E+01 0.115E+02 -.125E+03   0.348E+01 -.120E+02 0.130E+03   -.124E+00 0.452E+00 -.434E+01
   0.459E+01 -.210E+02 -.311E+02   -.469E+01 0.213E+02 0.316E+02   0.109E+00 -.271E+00 -.462E+00
   0.211E+02 -.452E+01 0.311E+02   -.213E+02 0.462E+01 -.316E+02   0.271E+00 -.108E+00 0.462E+00
   -.162E+00 0.162E+00 0.128E-04   0.175E+00 -.174E+00 0.282E-07   -.834E-02 0.831E-02 0.157E-16
   -.617E+01 0.268E+01 -.187E+03   0.483E+01 -.217E+01 0.185E+03   0.121E+01 -.466E+00 0.204E+01
   -.271E+01 0.616E+01 0.187E+03   0.218E+01 -.482E+01 -.185E+03   0.470E+00 -.121E+01 -.204E+01
   0.482E+01 0.908E+01 -.200E+03   -.493E+01 -.907E+01 0.202E+03   0.912E-01 0.977E-02 -.176E+01
   -.906E+01 -.485E+01 0.200E+03   0.906E+01 0.496E+01 -.202E+03   -.947E-02 -.913E-01 0.176E+01
   -.174E+01 0.174E+01 -.238E-04   0.142E-13 -.178E-13 -.284E-13   0.163E+01 -.162E+01 0.000E+00

 POSITION                                       TOTAL-FORCE (eV/Angst)
      0.69079      1.15356      8.52700         0.005831      0.005447     -0.030088
      0.73112      1.19402      1.69211        -0.005428     -0.005848      0.030088
      2.70263      1.19462      2.02687        -0.009825      0.006187      0.187810
      0.69668     -0.81795      8.19224        -0.006219      0.009804     -0.187810
     -1.25371      1.13836      6.41312         0.017407     -0.048985     -0.088953
      0.73992      3.13856      3.80598         0.049042     -0.017246      0.088953
      0.74344      3.17626      0.02429         0.002894     -0.002885     -0.000000
      2.56158      1.23661      4.03242        -0.017582      0.013437     -0.154959
      0.65423     -0.67703      6.18668        -0.013494      0.017538      0.154959
     -1.27371     -0.82410      8.59506        -0.007138      0.015464     -0.036908
      2.70230      3.16502      1.62404        -0.015487      0.007087      0.036908
    total drift:                                0.001235     -0.001241     -0.000024

  FREE ENERGIE OF THE ION-ELECTRON SYSTEM (eV)
  free  energy   TOTEN  =       -93.78943918 eV

  energy  without entropy=      -93.78943918  energy(sigma->0) =      -93.78943918

 writing wavefunctions

[...]

  free energy =  -0.919198159892E+02  energy without entropy=  -0.919198159892E+02

[...]

 d Force = 0.6684960E-03[-0.562E-02, 0.695E-02]  d Energy = 0.4461610E-01-0.439E-01
 d Force =-0.6469333E+01[-0.668E+01,-0.626E+01]  d Ewald  = 0.9016720E+02-0.966E+02

 Steepest descent step on ions:
 trial-energy change:   -0.044616  1 .order   -0.042593   -0.128145    0.042959
  (g-gl).g = 0.128E+00      g.g   = 0.128E+00  gl.gl    = 0.000E+00
 g(Force)  = 0.706E-02   g(Stress)= 0.121E+00 ortho     = 0.000E+00
 gamma     =   0.00000
 trial     =   1.00000
 opt step  =   0.76180  (harmonic =   0.74893) maximal distance =0.00690227
 next E    =   -93.839144   (d E  =  -0.04971)

[...]

 d Force = 0.9532740E-03[ 0.543E-03, 0.136E-02]  d Energy = 0.5146805E-02-0.419E-02
 d Force = 0.1608492E+01[ 0.160E+01, 0.162E+01]  d Ewald  =-0.2164819E+02 0.233E+02

[...]

 d Force =-0.8401797E-05[-0.848E-05,-0.832E-05]  d Energy = 0.6346479E-05-0.147E-04
 d Force =-0.2443395E-01[-0.244E-01,-0.244E-01]  d Ewald  = 0.3317844E+00-0.356E+00

 writing wavefunctions

[...]

 eigenvalue-minimisations  :     0
 total energy-change (2. order) : 0.4403376E-01  (-0.2823827E-01)
 number of electron      91.9999997 magnetization      15.9999999
 augmentation part       34.7960554 magnetization      10.6911730

[...]

--------------------------------------- Iteration      5(  10)  ---------------------------------------

 eigenvalue-minimisations  :     0
 total energy-change (2. order) :-0.5802781E-05  (-0.2646529E-05)
 number of electron      91.9999997 magnetization      15.9999999
 augmentation part       34.8159050 magnetization      10.6877362

  free energy =  -0.938403123315E+02  energy without entropy=  -0.938403123314E+02

  average scaling for gradient   0.9980

 average (electrostatic) potential at core
  the test charge radii are     0.7079  0.7215  0.9698  0.9500
  (the norm of the test charge is              1.0000)
       1 -53.0256       2 -53.0256       3 -63.4052       4 -63.4052       5 -81.7278
       6 -81.7278       7 -81.8435       8 -71.0334       9 -71.0334      10 -71.0863
      11 -71.0863

 E-fermi :   4.8918     XC(G=0):  -8.7738     alpha+bet :-12.1881

 Fermi energy:         4.8917736328

[...]

 k-point    26 :       0.5000    0.5000    0.5000
  band No.  band energies     occupation
      1     -55.7428      1.00000
      2     -55.7427      1.00000
      3     -55.7057      1.00000
      4     -55.7055      1.00000
      5     -54.3315      1.00000
      6     -54.3312      1.00000
      7     -54.1871      1.00000
      8     -54.1870      1.00000
      9     -54.1747      1.00000
     10     -54.1717      1.00000
     11     -54.1586      1.00000
     12     -54.1555      1.00000
     13     -43.2436      1.00000
     14     -43.2436      1.00000
     15     -15.6169      1.00000
     16     -15.6039      1.00000
     17      -8.7083      1.00000
     18      -8.4287      1.00000
     19      -8.3846      1.00000
     20      -2.9744      1.00000
     21      -2.9581      1.00000
     22      -2.0562      1.00000
     23      -2.0295      1.00000
     24      -1.8740      1.00000
     25      -1.6502      1.00000
     26      -0.8966      1.00000
     27      -0.7900      1.00000
     28      -0.6017      1.00000
     29      -0.5388      1.00000
     30      -0.4327      1.00000
     31      -0.3926      1.00000
     32      -0.2310      1.00000
     33      -0.2239      1.00000
     34       0.2814      1.00000
     35       0.3178      1.00000
     36       0.4477      1.00000
     37       0.5479      1.00000
     38       0.8006      1.00000
     39       0.9067      1.00000
     40       1.0827      1.00000
     41       1.4445      1.00000
     42       1.5081      1.00000
     43       1.6044      1.00000
     44       1.6928      1.00000
     45       1.7252      1.00000
     46       1.9043      1.00000
     47       1.9473      1.00000
     48       2.0236      1.00000
     49       2.4380      1.00000
     50       2.5338      1.00000
     51       2.8523      1.00000
     52       3.4034      1.00000
     53       3.7400      1.00000
     54       3.9963      1.00000
     55       8.9117      0.00000
     56       9.8284      0.00000
     57      10.6494      0.00000
     58      11.6738      0.00000
     59      12.0120      0.00000
     60      12.1706      0.00000
     61      12.4963      0.00000
     62      12.8638      0.00000
     63      14.0376      0.00000
     64      14.3739      0.00000
     65      14.5074      0.00000
     66      16.0067      0.00000
     67      16.0918      0.00000
     68      16.2737      0.00000
 Fermi energy:         4.8917736328

 spin component 2

[...]

 k-point    26 :       0.5000    0.5000    0.5000
  band No.  band energies     occupation
      1     -49.1160      1.00000
      2     -49.1152      1.00000
      3     -49.0622      1.00000
      4     -49.0622      1.00000
      5     -49.0580      1.00000
      6     -49.0577      1.00000
      7     -49.0372      1.00000
      8     -49.0372      1.00000
      9     -49.0230      1.00000
     10     -49.0201      1.00000
     11     -49.0177      1.00000
     12     -49.0148      1.00000
     13     -43.2426      1.00000
     14     -43.2426      1.00000
     15     -15.0904      1.00000
     16     -15.0763      1.00000
     17      -8.3801      1.00000
     18      -8.0109      1.00000
     19      -7.9572      1.00000
     20      -1.6312      1.00000
     21      -1.5871      1.00000
     22      -0.5465      1.00000
     23      -0.3777      1.00000
     24      -0.0672      1.00000
     25       0.1860      1.00000
     26       0.7309      1.00000
     27       0.8021      1.00000
     28       0.8477      1.00000
     29       1.1311      1.00000
     30       1.7392      1.00000
     31       1.7699      1.00000
     32       1.9641      1.00000
     33       2.3611      1.00000
     34       2.8372      1.00000
     35       4.0735      1.00000
     36       4.1742      1.00000
     37       4.2162      1.00000
     38       4.2262      1.00000
     39       6.7352      0.00000
     40       7.3062      0.00000
     41       7.4469      0.00000
     42       7.6679      0.00000
     43       8.2575      0.00000
     44       8.4925      0.00000
     45       8.8860      0.00000
     46       8.8991      0.00000
     47       8.9751      0.00000
     48       9.0959      0.00000
     49       9.1623      0.00000
     50       9.3420      0.00000
     51       9.3867      0.00000
     52       9.4556      0.00000
     53       9.6980      0.00000
     54       9.9081      0.00000
     55      10.7359      0.00000
     56      11.6025      0.00000
     57      11.7917      0.00000
     58      13.4039      0.00000
     59      13.5703      0.00000
     60      13.6164      0.00000
     61      13.8424      0.00000
     62      14.1070      0.00000
     63      14.8204      0.00000
     64      14.9179      0.00000
     65      15.4109      0.00000
     66      16.4467      0.00000
     67      16.8013      0.00000
     68      16.9180      0.00000

[...]

 soft charge-density along one line, spin component           2
         0         1         2         3         4         5         6         7         8         9
 total charge-density along one line

------------------------ aborting loop because EDIFF is reached ----------------------------------------

[...]

  FORCE on cell =-STRESS in cart. coord.  units (eV):
  Direction    XX          YY          ZZ          XY          YZ          ZX
  Alpha Z   298.43317   298.43317   298.43317
  Ewald   -2476.14650 -2476.18114 -2335.90058    -5.26065   -41.74265   -41.60546
  Hartree  1234.79406  1234.77989  1285.85911    -2.00777   -30.45208   -30.35195
  E(xc)    -388.32798  -388.32800  -388.26121    -0.00540    -0.01245    -0.01241
  Local    -275.37613  -275.32924  -448.81835     6.78431    71.41051    71.17571
  n-local   431.67618   434.90546   437.36687    -0.15073    -0.02154     0.01894
  augment   513.25249   513.25312   502.03295     0.24928     0.44137     0.43906
  Kinetic  1141.57958  1152.14711  1130.63946     0.49883     0.51311     0.56210
  Fock     -487.52251  -485.99968  -481.33294    -0.14711    -0.16788    -0.18583
  Total       0.02158     0.02147     0.01849    -0.01624     0.00474     0.00382
  in kB       0.22647     0.22535     0.19407    -0.17043     0.04970     0.04009

 VOLUME and BASIS-vectors are now :
  energy-cutoff  :      520.00
  volume of cell :      152.68
      direct lattice vectors                 reciprocal lattice vectors
     3.890862504 -0.001989187  0.024100685     0.256693761  0.000657284  0.051499641
    -0.014798022  3.890834871  0.024100685    -0.000187764  0.256694534  0.051499641
    -2.013196339 -2.019834790 10.060313669    -0.000614491 -0.000616517  0.099153732

  length of vectors
     3.890937654  3.890937653 10.456701353     0.261809725  0.261809725  0.099157553

 FORCES acting on ions:
    Electron-Ion                     Ewald-Force                    Non-Local-Force
   -.177E+00 -.956E+00 -.362E+02   0.188E+00 0.105E+01 0.361E+02   -.139E-01 -.101E+00 0.970E-01
   0.956E+00 0.181E+00 0.362E+02   -.105E+01 -.191E+00 -.361E+02   0.101E+00 0.142E-01 -.970E-01
   -.123E+02 0.326E+01 0.131E+03   0.128E+02 -.338E+01 -.136E+03   -.476E+00 0.106E+00 0.445E+01
   -.330E+01 0.123E+02 -.131E+03   0.343E+01 -.128E+02 0.136E+03   -.108E+00 0.475E+00 -.445E+01
   0.492E+01 -.223E+02 -.312E+02   -.501E+01 0.225E+02 0.316E+02   0.944E-01 -.219E+00 -.289E+00
   0.223E+02 -.485E+01 0.312E+02   -.225E+02 0.494E+01 -.316E+02   0.220E+00 -.937E-01 0.289E+00
   -.163E-01 0.162E-01 0.432E-05   0.252E-01 -.251E-01 0.281E-07   -.740E-02 0.738E-02 -.870E-14
   -.643E+01 0.287E+01 -.195E+03   0.509E+01 -.235E+01 0.192E+03   0.122E+01 -.475E+00 0.219E+01
   -.289E+01 0.642E+01 0.195E+03   0.237E+01 -.508E+01 -.192E+03   0.479E+00 -.122E+01 -.219E+01
   0.480E+01 0.958E+01 -.209E+03   -.492E+01 -.958E+01 0.211E+03   0.111E+00 0.520E-02 -.179E+01
   -.956E+01 -.483E+01 0.209E+03   0.956E+01 0.495E+01 -.211E+03   -.483E-02 -.111E+00 0.179E+01
   -.172E+01 0.171E+01 0.212E-04   -.124E-13 0.533E-14 0.142E-12   0.162E+01 -.161E+01 0.190E-11

 POSITION                                       TOTAL-FORCE (eV/Angst)
      0.68413      1.14205      8.43178         0.001778      0.002306     -0.016222
      0.72307      1.18112      1.67674        -0.002300     -0.001786      0.016222
      2.67450      1.18226      2.00863         0.005411      0.002201      0.017656
      0.68942     -0.80937      8.09988        -0.002183     -0.005418     -0.017656
     -1.23922      1.12395      6.34292         0.005890     -0.009718      0.025786
      0.73484      3.10452      3.76559         0.009737     -0.005858     -0.025786
      0.73598      3.14253      0.02410         0.000518     -0.000517      0.000000
      2.53340      1.22470      3.98595        -0.005251      0.006031      0.004994
      0.64651     -0.66840      6.12256        -0.006048      0.005231     -0.004994
     -1.26062     -0.81409      8.49833         0.000574      0.008129     -0.004512
      2.67280      3.13230      1.61018        -0.008127     -0.000600      0.004512
    total drift:                                0.000173     -0.000216      0.000021

  FREE ENERGIE OF THE ION-ELECTRON SYSTEM (eV)
  free  energy   TOTEN  =       -93.84031233 eV

  energy  without entropy=      -93.84031233  energy(sigma->0) =      -93.84031233

 d Force = 0.8567616E-03[ 0.170E-03, 0.154E-02]  d Energy = 0.1103906E-02-0.247E-03
 d Force = 0.9760668E+00[ 0.960E+00, 0.992E+00]  d Ewald  = 0.4829765E+01-0.385E+01

 Conjugate gradient step on ions:
 trial-energy change:   -0.001104  1 .order   -0.001071   -0.002004   -0.000137
  (g-gl).g = 0.229E-02      g.g   = 0.211E-02  gl.gl    = 0.128E+00
 g(Force)  = 0.166E-02   g(Stress)= 0.446E-03 ortho     =-0.180E-03
 gamma     =   0.01785
 trial     =   0.95309
 opt step  =   1.02286  (harmonic =   1.02286) maximal distance =0.00341967
 next E    =   -93.840284   (d E  =  -0.00108)

 reached required accuracy - stopping structural energy minimisation
 writing wavefunctions

 total charge

[...]

 magnetization (x)

# of ion       s       p       d       tot
    1       -0.000   0.001   0.000   0.001
    2       -0.000   0.001   0.000   0.001
    3        0.014   0.160   0.000   0.174
    4        0.014   0.160   0.000   0.174
    5        0.023   0.122   0.000   0.146
    6        0.023   0.122   0.000   0.146
    7        0.019   0.099   0.000   0.119
    8        0.041   0.026   3.567   3.634
    9        0.041   0.026   3.567   3.634
   10        0.032   0.029   3.573   3.633
   11        0.032   0.029   3.573   3.633
tot          0.239   0.774  14.280  15.293