 vasp.5.4.4.18Apr17-6-g9f103f2a35 (build Oct 25 2017 14:42:18) complex

 executed on             LinuxIFC date 2021.06.16  20:09:50

 INCAR:
 POTCAR:    PAW_PBE Li_sv 10Sep2004
 POTCAR:    PAW_PBE Fe_pv 02Aug2007
 POTCAR:    PAW_PBE S 06Sep2000
 POTCAR:    PAW_PBE O 08Apr2002

 POTCAR:    PAW_PBE Li_sv 10Sep2004

 POTCAR:    PAW_PBE Fe_pv 02Aug2007

 POTCAR:    PAW_PBE S 06Sep2000

 POTCAR:    PAW_PBE O 08Apr2002

  PAW_PBE Li_sv 10Sep2004               :
  PAW_PBE Fe_pv 02Aug2007               :
  PAW_PBE S 06Sep2000                   :
  PAW_PBE O 08Apr2002                   :

 POSCAR: # Compound: Li64Fe32S32O32. Old comment:
  positions in direct lattice
 exchange correlation table for  LEXCH =        8
   RHO(1)=    0.500       N(1)  =     2000
   RHO(2)=  100.500       N(2)  =     4000

 ion  position               nearest neighbor table
   1  0.125  0.276  0.475- 133 1.96 149 1.97  97 2.54 105 2.54
   2  0.625  0.276  0.475- 150 1.96 134 1.97  98 2.54 106 2.54
   3  0.125  0.776  0.475- 151 1.96 135 1.97  99 2.54 107 2.54
   4  0.625  0.776  0.475- 152 1.96 136 1.97 100 2.54 108 2.54
   5  0.125  0.276  0.975- 145 1.96 129 1.97 101 2.54 109 2.54
   6  0.625  0.276  0.975- 146 1.96 130 1.97 102 2.54 110 2.54
   7  0.125  0.776  0.975- 147 1.96 131 1.97 103 2.54 111 2.54
   8  0.625  0.776  0.975- 148 1.96 132 1.97 104 2.54 112 2.54
   9  0.125  0.474  0.275- 155 1.96 139 1.97 105 2.54  97 2.54
  10  0.625  0.474  0.275- 156 1.96 140 1.97 106 2.54  98 2.54
  11  0.125  0.974  0.275- 153 1.96 137 1.97 107 2.54  99 2.54
  12  0.625  0.974  0.275- 154 1.96 138 1.97 108 2.54 100 2.54
  13  0.125  0.474  0.775- 159 1.96 143 1.97 109 2.54 101 2.54
  14  0.625  0.474  0.775- 160 1.96 144 1.97 110 2.54 102 2.54
  15  0.125  0.974  0.775- 157 1.96 141 1.97 111 2.54 103 2.54
  16  0.625  0.974  0.775- 158 1.96 142 1.97 112 2.54 104 2.54
  17  0.375  0.224  0.025- 145 1.96 130 1.97 113 2.54 121 2.54
  18  0.875  0.224  0.025- 146 1.96 129 1.97 114 2.54 122 2.54
  19  0.375  0.724  0.025- 147 1.96 132 1.97 115 2.54 123 2.54
  20  0.875  0.724  0.025- 148 1.96 131 1.97 116 2.54 124 2.54
  21  0.375  0.224  0.525- 149 1.96 134 1.97 117 2.54 125 2.54
  22  0.875  0.224  0.525- 150 1.96 133 1.97 118 2.54 126 2.54
  23  0.375  0.724  0.525- 151 1.96 136 1.97 119 2.54 127 2.54
  24  0.875  0.724  0.525- 152 1.96 135 1.97 120 2.54 128 2.54
  25  0.375  0.026  0.225- 153 1.96 138 1.97 121 2.54 113 2.54
  26  0.875  0.026  0.225- 154 1.96 137 1.97 122 2.54 114 2.54
  27  0.375  0.526  0.225- 155 1.96 140 1.97 123 2.54 115 2.54
  28  0.875  0.526  0.225- 156 1.96 139 1.97 124 2.54 116 2.54
  29  0.375  0.026  0.725- 157 1.96 142 1.97 125 2.54 117 2.54
  30  0.875  0.026  0.725- 158 1.96 141 1.97 126 2.54 118 2.54
  31  0.375  0.526  0.725- 159 1.96 144 1.97 127 2.54 119 2.54
  32  0.875  0.526  0.725- 160 1.96 143 1.97 128 2.54 120 2.54
  33  0.276  0.375  0.375- 149 2.01 155 2.01 119 2.52 121 2.52
  34  0.776  0.375  0.375- 150 2.01 156 2.01 120 2.52 122 2.52
  35  0.276  0.875  0.375- 151 2.01 153 2.01 117 2.52 123 2.52
  36  0.776  0.875  0.375- 152 2.01 154 2.01 118 2.52 124 2.52
  37  0.276  0.375  0.875- 145 2.01 159 2.01 115 2.52 125 2.52
  38  0.776  0.375  0.875- 146 2.01 160 2.01 116 2.52 126 2.52
  39  0.276  0.875  0.875- 147 2.01 157 2.01 113 2.52 127 2.52
  40  0.776  0.875  0.875- 148 2.01 158 2.01 114 2.52 128 2.52
  41  0.224  0.125  0.125- 145 2.01 153 2.01 103 2.52 105 2.52
  42  0.724  0.125  0.125- 146 2.01 154 2.01 104 2.52 106 2.52
  43  0.224  0.625  0.125- 147 2.01 155 2.01 101 2.52 107 2.52
  44  0.724  0.625  0.125- 148 2.01 156 2.01 102 2.52 108 2.52
  45  0.224  0.125  0.625- 149 2.01 157 2.01  99 2.52 109 2.52
  46  0.724  0.125  0.625- 150 2.01 158 2.01 100 2.52 110 2.52
  47  0.224  0.625  0.625- 151 2.01 159 2.01  97 2.52 111 2.52
  48  0.724  0.625  0.625- 152 2.01 160 2.01  98 2.52 112 2.52
  49  0.500  0.375  0.125- 130 2.00 140 2.00
  50  1.000  0.375  0.125- 129 2.00 139 2.00
  51  0.500  0.875  0.125- 132 2.00 138 2.00
  52  1.000  0.875  0.125- 131 2.00 137 2.00
  53  0.500  0.375  0.625- 134 2.00 144 2.00
  54  1.000  0.375  0.625- 133 2.00 143 2.00
  55  0.500  0.875  0.625- 136 2.00 142 2.00
  56  1.000  0.875  0.625- 135 2.00 141 2.00
  57  0.000  0.125  0.375- 133 2.00 137 2.00
  58  0.500  0.125  0.375- 134 2.00 138 2.00
  59  0.000  0.625  0.375- 135 2.00 139 2.00
  60  0.500  0.625  0.375- 136 2.00 140 2.00
[...]
 146  0.750  0.250  0.000-   6 1.96  18 1.96  82 2.00  94 2.00  38 2.01  42 2.01
 147  0.250  0.750  0.000-   7 1.96  19 1.96  83 2.00  95 2.00  39 2.01  43 2.01
 148  0.750  0.750  0.000-   8 1.96  20 1.96  84 2.00  96 2.00  40 2.01  44 2.01
 149  0.250  0.250  0.500-  21 1.96   1 1.97  85 2.00  89 2.00  33 2.01  45 2.01
 150  0.750  0.250  0.500-   2 1.96  22 1.96  86 2.00  90 2.00  34 2.01  46 2.01
 151  0.250  0.750  0.500-   3 1.96  23 1.96  87 2.00  91 2.00  35 2.01  47 2.01
 152  0.750  0.750  0.500-   4 1.96  24 1.96  88 2.00  92 2.00  36 2.01  48 2.01
 153  0.250  0.000  0.250-  11 1.96  25 1.96  83 2.00  89 2.00  35 2.01  41 2.01
 154  0.750  0.000  0.250-  12 1.96  26 1.96  84 2.00  90 2.00  36 2.01  42 2.01
 155  0.250  0.500  0.250-   9 1.96  27 1.96  81 2.00  91 2.00  33 2.01  43 2.01
 156  0.750  0.500  0.250-  10 1.96  28 1.96  82 2.00  92 2.00  34 2.01  44 2.01
 157  0.250  0.000  0.750-  15 1.96  29 1.96  87 2.00  93 2.00  39 2.01  45 2.01
 158  0.750  0.000  0.750-  16 1.96  30 1.96  88 2.00  94 2.00  40 2.01  46 2.01
 159  0.250  0.500  0.750-  13 1.96  31 1.96  85 2.00  95 2.00  37 2.01  47 2.01
 160  0.750  0.500  0.750-  14 1.96  32 1.96  86 2.00  96 2.00  38 2.01  48 2.01

  LATTYP: Found a simple monoclinic cell.
 ALAT       =    16.0245724362
 B/A-ratio  =     0.9595037360
 C/A-ratio  =     1.5788311284
 COS(beta)  =    -0.9500776273

  Lattice vectors:

 A1 = (   0.0000000000, -11.3322995400, -11.3298680000)
 A2 = ( -15.3756371200,   0.0000000000,   0.0000000000)
 A3 = (   0.0000000000,  22.5798703800,  11.4124580600)

Analysis of symmetry for initial positions (statically):
 Subroutine PRICEL returns:
 Original cell was already a primitive cell.

 Routine SETGRP: Setting up the symmetry group for a
 simple monoclinic supercell.

 Subroutine GETGRP returns: Found  1 space group operations
 (whereof  1 operations were pure point group operations)
 out of a pool of  4 trial point group operations.

The static configuration has the point symmetry C_1 .

Analysis of symmetry for dynamics (positions and initial velocities):
 Subroutine PRICEL returns:
 Original cell was already a primitive cell.

[...]

The dynamic configuration has the point symmetry C_1 .

Analysis of structural, dynamic, and magnetic symmetry:
 Subroutine PRICEL returns:
 Original cell was already a primitive cell.

 Routine SETGRP: Setting up the symmetry group for a
 simple monoclinic supercell.

 Subroutine GETGRP returns: Found  1 space group operations
 (whereof  1 operations were pure point group operations)
 out of a pool of  4 trial point group operations.

The magnetic configuration has the point symmetry C_1 .

 Subroutine INISYM returns: Found  1 space group operations
 (whereof  1 operations are pure point group operations),
 and found     1 'primitive' translations

 KPOINTS: # No comment

Automatic generation of k-mesh.
Space group operators:
 irot       det(A)        alpha          n_x          n_y          n_z        tau_x        tau_y        tau_z
    1     1.000000     0.000001     1.000000     0.000000     0.000000     0.000000     0.000000     0.000000

 Subroutine IBZKPT returns following result:

 Found     10 irreducible k-points:

 Following reciprocal coordinates:
            Coordinates               Weight
  0.000000  0.000000  0.000000      1.000000
  0.500000  0.000000  0.000000      1.000000
  0.000000  0.333333 -0.000000      2.000000
  0.500000  0.333333 -0.000000      2.000000
  0.000000 -0.000000  0.333333      2.000000
  0.500000 -0.000000  0.333333      2.000000
  0.000000  0.333333  0.333333      2.000000
  0.500000  0.333333  0.333333      2.000000
  0.000000 -0.333333  0.333333      2.000000
  0.500000 -0.333333  0.333333      2.000000

 Following cartesian coordinates:
            Coordinates               Weight
  0.000000  0.000000  0.000000      1.000000
  0.032519  0.000000  0.000000      1.000000
  0.000000  0.029638 -0.000223      2.000000
  0.032519  0.029638 -0.000223      2.000000
  0.000000 -0.000218  0.029638      2.000000
  0.032519 -0.000218  0.029638      2.000000
  0.000000  0.029420  0.029415      2.000000
  0.032519  0.029420  0.029415      2.000000
  0.000000 -0.029855  0.029862      2.000000
  0.032519 -0.029855  0.029862      2.000000

 SYSTEM =  unknown system
 POSCAR =  # Compound: Li64Fe32S32O32. Old comment:

 Startparameter for this run:
   NWRITE =      1    write-flag & timer
   PREC   = accura    normal or accurate (medium, high low for compatibility)
   ISTART =      0    job   : 0-new  1-cont  2-samecut
   ICHARG =      1    charge: 1-file 2-atom 10-const
   ISPIN  =      2    spin polarized calculation?
   LNONCOLLINEAR =      F non collinear calculations
   LSORBIT =      F    spin-orbit coupling
   INIWAV =      1    electr: 0-lowe 1-rand  2-diag
   LASPH  =      T    aspherical Exc in radial PAW
   METAGGA=      F    non-selfconsistent MetaGGA calc.

 Electronic Relaxation 1
   ENCUT  =  650.0 eV  47.77 Ry    6.91 a.u.  31.96 23.38 23.38*2*pi/ulx,y,z
   ENINI  =  650.0     initial cutoff
   ENAUG  =  628.9 eV  augmentation charge cutoff
   NELM   =    200;   NELMIN=  8; NELMDL=  0     # of ELM steps
   EDIFF  = 0.1E-07   stopping-criterion for ELM
   LREAL  =      F    real-space projection
   NLSPLINE    = F    spline interpolate recip. space projectors
   LCOMPAT=      F    compatible to vasp.4.4
   GGA_COMPAT  = T    GGA compatible to vasp.4.4-vasp.4.6
   LMAXPAW     = -100 max onsite density
   LMAXMIX     =    4 max onsite mixed and CHGCAR
   VOSKOWN=      0    Vosko Wilk Nusair interpolation
   ROPT   =    0.00000   0.00000   0.00000   0.00000
 Ionic relaxation
   EDIFFG = 0.1E-06   stopping-criterion for IOM
   NSW    =      0    number of steps for IOM
   NBLOCK =      1;   KBLOCK =      1    inner block; outer block
   IBRION =     -1    ionic relax: 0-MD 1-quasi-New 2-CG
   NFREE  =      0    steps in history (QN), initial steepest desc. (CG)
   ISIF   =      2    stress and relaxation
   IWAVPR =     10    prediction:  0-non 1-charg 2-wave 3-comb
   ISYM   =      2    0-nonsym 1-usesym 2-fastsym
   LCORR  =      T    Harris-Foulkes like correction to forces

   POTIM  = 0.5000    time-step for ionic-motion
   TEIN   =    0.0    initial temperature
   TEBEG  =    0.0;   TEEND  =   0.0 temperature during run
   SMASS  =  -3.00    Nose mass-parameter (am)
   estimated Nose-frequenzy (Omega)   =  0.10E-29 period in steps =****** mass=  -0.540E-26a.u.
   SCALEE = 1.0000    scale energy and forces
   NPACO  =    256;   APACO  = 16.0  distance and # of slots for P.C.
   PSTRESS=    0.0 pullay stress

  Mass of Ions in am
   POMASS =   7.01 55.85 32.07 16.00
  Ionic Valenz
   ZVAL   =   3.00 14.00  6.00  6.00
  Atomic Wigner-Seitz radii
  virtual crystal weights
[...]
     0.000000000  0.084728700 11.247277940     0.000000000 -0.000652898  0.088915320

  length of vectors
    15.375637120 11.247874062 11.247597077     0.065037955  0.088915528  0.088917717

 FORCES acting on ions
    electron-ion (+dipol)            ewald-force                    non-local-force                 convergence-correction
   -.844E+00 -.128E+02 0.128E+02   0.853E+00 0.129E+02 -.128E+02   0.557E-01 -.849E-01 0.839E-01   -.861E-06 0.430E-08 0.268E-07
   0.144E+01 -.129E+02 0.129E+02   -.139E+01 0.130E+02 -.129E+02   -.473E-01 -.838E-01 0.829E-01   -.242E-07 -.588E-07 0.510E-07
   0.141E+01 -.129E+02 0.129E+02   -.136E+01 0.130E+02 -.129E+02   -.478E-01 -.838E-01 0.829E-01   -.237E-07 -.117E-06 0.121E-06
   0.143E+01 -.129E+02 0.129E+02   -.139E+01 0.130E+02 -.129E+02   -.474E-01 -.838E-01 0.829E-01   -.601E-07 -.689E-07 0.112E-06
   0.141E+01 -.129E+02 0.129E+02   -.136E+01 0.130E+02 -.129E+02   -.478E-01 -.838E-01 0.828E-01   0.566E-07 -.438E-07 0.327E-07
   0.143E+01 -.129E+02 0.129E+02   -.139E+01 0.130E+02 -.129E+02   -.474E-01 -.838E-01 0.829E-01   -.325E-07 -.366E-07 0.536E-07
   0.142E+01 -.129E+02 0.129E+02   -.137E+01 0.130E+02 -.129E+02   -.480E-01 -.838E-01 0.829E-01   -.183E-07 -.107E-08 -.145E-08
   0.143E+01 -.129E+02 0.129E+02   -.138E+01 0.130E+02 -.129E+02   -.476E-01 -.838E-01 0.829E-01   0.630E-07 -.806E-07 0.119E-06
   0.138E+01 0.129E+02 -.129E+02   -.134E+01 -.130E+02 0.129E+02   -.484E-01 0.838E-01 -.829E-01   0.198E-06 0.173E-06 -.129E-06
   0.143E+01 0.129E+02 -.129E+02   -.139E+01 -.130E+02 0.129E+02   -.475E-01 0.838E-01 -.829E-01   0.251E-07 0.109E-06 -.116E-06
   0.141E+01 0.129E+02 -.129E+02   -.136E+01 -.130E+02 0.129E+02   -.482E-01 0.837E-01 -.828E-01   -.245E-07 0.904E-07 -.679E-07
   0.143E+01 0.129E+02 -.129E+02   -.139E+01 -.130E+02 0.129E+02   -.475E-01 0.838E-01 -.829E-01   -.509E-07 0.331E-07 -.400E-07
   0.141E+01 0.129E+02 -.129E+02   -.136E+01 -.130E+02 0.129E+02   -.482E-01 0.838E-01 -.828E-01   -.552E-07 0.524E-08 -.147E-07
   0.143E+01 0.129E+02 -.129E+02   -.139E+01 -.130E+02 0.129E+02   -.475E-01 0.838E-01 -.829E-01   -.290E-08 0.418E-07 -.631E-07
   0.141E+01 0.129E+02 -.129E+02   -.136E+01 -.130E+02 0.129E+02   -.482E-01 0.839E-01 -.829E-01   0.359E-07 0.373E-07 -.649E-07
   0.143E+01 0.129E+02 -.129E+02   -.138E+01 -.130E+02 0.129E+02   -.475E-01 0.838E-01 -.829E-01   -.735E-07 0.872E-07 -.112E-06
   -.142E+01 0.129E+02 -.129E+02   0.137E+01 -.130E+02 0.130E+02   0.476E-01 0.838E-01 -.832E-01   -.355E-07 0.176E-06 -.702E-07
   -.142E+01 0.129E+02 -.129E+02   0.137E+01 -.130E+02 0.129E+02   0.476E-01 0.839E-01 -.825E-01   0.520E-07 0.921E-07 -.137E-06
   -.142E+01 0.129E+02 -.129E+02   0.138E+01 -.130E+02 0.130E+02   0.478E-01 0.839E-01 -.829E-01   0.164E-07 0.141E-06 -.846E-07
   -.142E+01 0.129E+02 -.129E+02   0.138E+01 -.130E+02 0.129E+02   0.478E-01 0.838E-01 -.828E-01   -.211E-07 0.822E-07 -.637E-07
   -.139E+01 0.129E+02 -.129E+02   0.134E+01 -.130E+02 0.129E+02   0.518E-01 0.831E-01 -.822E-01   -.151E-07 0.723E-07 -.362E-07
   -.139E+01 0.129E+02 -.129E+02   0.134E+01 -.130E+02 0.130E+02   0.517E-01 0.847E-01 -.837E-01   0.254E-07 -.567E-07 0.503E-07
   -.142E+01 0.129E+02 -.129E+02   0.137E+01 -.130E+02 0.129E+02   0.476E-01 0.841E-01 -.828E-01   0.743E-07 0.102E-06 -.984E-07
   -.142E+01 0.129E+02 -.129E+02   0.137E+01 -.130E+02 0.130E+02   0.476E-01 0.834E-01 -.829E-01   0.342E-07 0.114E-06 -.598E-07
   -.142E+01 -.129E+02 0.129E+02   0.137E+01 0.130E+02 -.129E+02   0.480E-01 -.840E-01 0.828E-01   -.649E-07 -.896E-07 0.194E-06
   -.142E+01 -.129E+02 0.129E+02   0.137E+01 0.130E+02 -.130E+02   0.478E-01 -.836E-01 0.829E-01   0.114E-06 -.826E-07 0.613E-07
   -.142E+01 -.129E+02 0.129E+02   0.137E+01 0.130E+02 -.129E+02   0.478E-01 -.838E-01 0.828E-01   -.903E-08 -.135E-06 0.155E-06
   -.142E+01 -.129E+02 0.129E+02   0.137E+01 0.130E+02 -.130E+02   0.481E-01 -.839E-01 0.830E-01   0.190E-07 -.282E-06 0.303E-06
   -.142E+01 -.129E+02 0.129E+02   0.137E+01 0.130E+02 -.130E+02   0.478E-01 -.840E-01 0.830E-01   -.479E-07 -.131E-06 0.632E-07
   -.142E+01 -.129E+02 0.129E+02   0.137E+01 0.130E+02 -.129E+02   0.480E-01 -.837E-01 0.828E-01   0.112E-06 -.487E-07 0.804E-08
   -.142E+01 -.129E+02 0.129E+02   0.137E+01 0.130E+02 -.130E+02   0.480E-01 -.837E-01 0.830E-01   0.139E-07 -.161E-06 -.207E-07
   -.142E+01 -.129E+02 0.129E+02   0.137E+01 0.130E+02 -.129E+02   0.478E-01 -.839E-01 0.826E-01   0.116E-07 -.740E-07 0.364E-07
   -.515E+01 0.514E-01 -.514E-01   0.544E+01 -.574E-01 0.575E-01   -.297E+00 0.323E-02 -.323E-02   -.535E-07 -.205E-07 0.451E-07
   -.519E+01 -.347E-02 0.347E-02   0.549E+01 0.360E-02 -.361E-02   -.299E+00 -.581E-04 0.582E-04   -.668E-07 0.875E-07 -.633E-07
   -.521E+01 -.710E-02 -.300E-02   0.551E+01 0.761E-02 0.281E-02   -.299E+00 -.300E-03 0.118E-03   -.352E-08 0.533E-07 -.152E-07
   -.520E+01 0.210E-02 0.764E-03   0.550E+01 -.232E-02 -.112E-02   -.299E+00 0.163E-03 0.237E-03   -.666E-07 0.144E-07 -.202E-07
   -.521E+01 0.300E-02 0.711E-02   0.551E+01 -.282E-02 -.761E-02   -.299E+00 -.118E-03 0.300E-03   -.121E-06 0.474E-08 -.736E-07
   -.520E+01 -.765E-03 -.210E-02   0.550E+01 0.112E-02 0.232E-02   -.299E+00 -.237E-03 -.163E-03   -.511E-07 0.131E-07 0.370E-07
   -.521E+01 -.176E-02 0.176E-02   0.551E+01 0.183E-02 -.183E-02   -.299E+00 -.543E-04 0.544E-04   -.794E-07 -.258E-07 -.226E-08
   -.520E+01 0.903E-03 -.903E-03   0.550E+01 -.965E-03 0.966E-03   -.299E+00 0.397E-04 -.397E-04   -.417E-07 0.204E-08 -.306E-07
   0.519E+01 -.593E-02 -.102E-01   -.549E+01 0.506E-02 0.102E-01   0.299E+00 0.634E-03 0.101E-03   0.243E-07 0.141E-07 -.280E-07
   0.521E+01 0.935E-03 0.168E-02   -.551E+01 -.109E-02 -.176E-02   0.299E+00 0.734E-04 0.251E-04   -.460E-07 -.138E-07 -.107E-07
   0.520E+01 0.289E-02 -.289E-02   -.550E+01 -.302E-02 0.302E-02   0.299E+00 0.108E-03 -.108E-03   -.190E-07 -.249E-08 0.280E-07
   0.521E+01 -.912E-03 0.912E-03   -.551E+01 0.996E-03 -.996E-03   0.299E+00 -.572E-04 0.571E-04   0.703E-07 -.180E-07 0.333E-07
   0.520E+01 -.491E-01 0.491E-01   -.549E+01 0.552E-01 -.551E-01   0.298E+00 -.331E-02 0.331E-02   -.969E-08 0.695E-07 -.101E-06
   0.521E+01 0.208E-02 -.208E-02   -.551E+01 -.218E-02 0.218E-02   0.299E+00 0.720E-04 -.720E-04   0.346E-07 -.233E-07 0.321E-08
   0.519E+01 0.102E-01 0.593E-02   -.549E+01 -.102E-01 -.506E-02   0.299E+00 -.101E-03 -.635E-03   0.201E-07 -.248E-07 0.137E-07
   0.521E+01 -.168E-02 -.934E-03   -.551E+01 0.176E-02 0.109E-02   0.299E+00 -.252E-04 -.734E-04   0.147E-06 0.215E-07 -.199E-08
   0.101E-01 0.788E-03 -.253E-02   -.117E-01 -.106E-02 0.268E-02   0.140E-02 0.158E-03 -.934E-04   0.820E-07 -.798E-08 0.750E-08
   -.341E-02 -.499E-02 0.134E-01   0.318E-02 0.438E-02 -.139E-01   0.627E-03 0.405E-03 0.243E-03   -.472E-07 -.660E-08 -.622E-07
   0.742E-02 -.778E-03 -.978E-03   -.865E-02 0.854E-03 0.106E-02   0.120E-02 -.506E-04 -.504E-04   0.450E-07 0.591E-07 0.429E-07
   -.201E-02 0.203E-02 0.228E-02   0.122E-02 -.206E-02 -.235E-02   0.963E-03 0.338E-04 0.533E-04   0.379E-07 -.810E-07 -.621E-07
   0.159E-01 0.222E-02 0.333E-02   -.175E-01 -.231E-02 -.342E-02   0.138E-02 0.568E-04 0.578E-04   -.584E-07 -.710E-08 -.167E-07
   0.253E-01 -.425E-01 -.659E-01   -.282E-01 0.484E-01 0.727E-01   0.119E-02 -.337E-02 -.354E-02   0.110E-06 0.563E-07 0.253E-07
   0.888E-02 -.155E-02 0.934E-03   -.104E-01 0.169E-02 -.120E-02   0.138E-02 -.865E-04 0.159E-03   0.358E-08 -.125E-07 -.105E-07
   -.314E-02 0.634E-02 -.386E-02   0.270E-02 -.670E-02 0.351E-02   0.751E-03 0.186E-03 0.235E-03   -.399E-07 -.241E-07 -.523E-08
   0.198E-01 0.659E-01 0.425E-01   -.207E-01 -.727E-01 -.484E-01   -.979E-03 0.354E-02 0.337E-02   0.646E-07 -.763E-07 -.677E-07
   0.105E-01 -.333E-02 -.222E-02   -.101E-01 0.342E-02 0.230E-02   -.788E-03 -.578E-04 -.568E-04   0.424E-07 -.336E-07 -.112E-07
   -.880E-02 -.134E-01 0.500E-02   0.106E-01 0.139E-01 -.439E-02   -.154E-02 -.243E-03 -.407E-03   0.112E-07 0.247E-07 0.484E-07
   0.475E-02 0.252E-02 -.789E-03   -.428E-02 -.268E-02 0.106E-02   -.766E-03 0.930E-04 -.158E-03   -.795E-08 0.182E-08 0.352E-07
[...]
   -.812E-02 0.712E-03 -.711E-03   0.849E-02 -.709E-03 0.707E-03   -.519E-03 -.290E-05 0.312E-05   -.641E-06 0.433E-06 -.460E-06
   0.812E-02 -.347E-03 0.346E-03   -.851E-02 0.373E-03 -.372E-03   0.530E-03 -.380E-04 0.380E-04   0.517E-07 -.372E-06 0.311E-06
   0.569E+00 -.129E+00 0.129E+00   -.642E+00 0.145E+00 -.145E+00   0.570E-01 -.146E-01 0.146E-01   -.456E-06 -.125E-07 0.482E-07
   0.341E-01 0.158E-02 -.157E-02   -.358E-01 -.162E-02 0.161E-02   0.223E-02 0.489E-04 -.489E-04   -.560E-06 -.114E-06 0.129E-06
   -.115E-01 0.435E-02 0.108E-02   0.129E-01 -.399E-02 -.104E-02   -.196E-02 -.525E-03 -.861E-04   -.862E-07 0.106E-07 -.550E-07
   0.123E-01 -.889E-03 -.435E-03   -.133E-01 0.102E-02 0.421E-03   0.139E-02 -.189E-03 0.135E-04   0.386E-06 -.278E-07 -.556E-07
   -.130E-01 -.235E-01 -.196E-01   0.133E-01 0.244E-01 0.204E-01   -.399E-03 -.167E-02 -.163E-02   0.884E-06 -.555E-07 0.281E-06
   0.149E-01 0.471E-02 0.422E-02   -.157E-01 -.503E-02 -.441E-02   0.109E-02 0.506E-03 0.317E-03   -.854E-06 -.158E-06 0.122E-06
   -.118E-01 0.327E-01 -.327E-01   0.125E-01 -.338E-01 0.338E-01   -.101E-02 0.143E-02 -.143E-02   -.167E-06 -.188E-06 0.290E-06
   0.173E-01 -.517E-02 0.518E-02   -.181E-01 0.542E-02 -.543E-02   0.109E-02 -.333E-03 0.333E-03   -.334E-06 0.249E-06 -.180E-06
   -.122E-01 -.167E-01 0.167E-01   0.129E-01 0.173E-01 -.173E-01   -.892E-03 -.883E-03 0.884E-03   0.986E-07 -.227E-06 0.147E-06
   0.136E-01 0.409E-02 -.409E-02   -.143E-01 -.431E-02 0.431E-02   0.933E-03 0.296E-03 -.296E-03   0.159E-06 0.203E-06 -.238E-06
   -.130E-01 0.196E-01 0.235E-01   0.133E-01 -.204E-01 -.244E-01   -.398E-03 0.164E-02 0.167E-02   0.245E-06 -.312E-06 0.607E-07
   0.149E-01 -.422E-02 -.471E-02   -.157E-01 0.441E-02 0.503E-02   0.109E-02 -.317E-03 -.506E-03   0.256E-06 -.142E-06 0.278E-06
   -.232E+00 0.707E-02 -.710E-02   -.663E-12 -.191E-12 0.455E-13   0.231E+00 -.707E-02 0.710E-02   0.621E-06 0.265E-06 -.232E-06

 POSITION                                       TOTAL-FORCE (eV/Angst)
      1.91590      3.13932      5.36004         0.064092     -0.001089      0.000974
      9.61372      3.13932      5.36004        -0.000218     -0.000053     -0.000070
      1.92590      8.76310      5.40133        -0.000133     -0.000098     -0.000033
      9.61372      8.76310      5.40133        -0.000167     -0.000054     -0.000065
      1.92590      3.18168     10.98368        -0.000133     -0.000089     -0.000025
      9.61372      3.18168     10.98368        -0.000167     -0.000057     -0.000069
      1.92590      8.80547     11.02497         0.000122     -0.000050     -0.000073
      9.61372      8.80547     11.02497        -0.000052     -0.000055     -0.000068
      1.92590      5.35991      3.13736         0.000703     -0.000014      0.000137
      9.61372      5.35991      3.13736        -0.000131      0.000055      0.000068
      1.92590     10.98369      3.17866         0.000299      0.000188      0.000072
      9.61372     10.98369      3.17866        -0.000129      0.000054      0.000067
      1.92590      5.40227      8.76100         0.000300      0.000051     -0.000065
      9.61372      5.40227      8.76100        -0.000129      0.000055      0.000069
      1.92590     11.02606      8.80230         0.000248      0.000005      0.000118
      9.61372     11.02606      8.80230        -0.000111      0.000057      0.000066
      5.76192      2.52683      0.30490         0.000118      0.000102      0.000127
     13.44973      2.52683      0.30490         0.000123      0.000026     -0.000057
      5.76192      8.15062      0.34619        -0.000023      0.000050      0.000073
     13.44973      8.15062      0.34619        -0.000023      0.000074      0.000049
      5.76192      2.56920      5.92854        -0.001491      0.000229     -0.000105
     13.44973      2.56920      5.92854        -0.001413     -0.000210      0.000333
      5.76192      8.19298      5.96983         0.000118     -0.000004      0.000021
     13.44973      8.19298      5.96983         0.000123      0.000180      0.000096
      5.76192      0.30624      2.52757        -0.000065      0.000042      0.000010
     13.44973      0.30624      2.52757         0.000035     -0.000219     -0.000160
      5.76192      5.93003      2.56887        -0.000027     -0.000154      0.000032
     13.44973      5.93003      2.56887        -0.000108     -0.000003     -0.000120
      5.76192      0.34861      8.15121        -0.000027      0.000078     -0.000201
     13.44973      0.34861      8.15121        -0.000108     -0.000176      0.000054
      5.76192      5.97239      8.19250        -0.000065     -0.000133     -0.000164
     13.44973      5.97239      8.19250         0.000035      0.000037      0.000096
      4.24371      4.24961      4.24870        -0.003546     -0.002842      0.002843
     11.93153      4.24961      4.24870        -0.000316      0.000077     -0.000077
      4.24371      9.87340      4.29000         0.000287      0.000204     -0.000062
     11.93153      9.87340      4.29000        -0.000102     -0.000060     -0.000115
      4.24371      4.29198      9.87234         0.000288      0.000062     -0.000205
     11.93153      4.29198      9.87234        -0.000102      0.000115      0.000060
      4.24371      9.91576      9.91363         0.000135      0.000014     -0.000014
     11.93153      9.91576      9.91363        -0.000020     -0.000023      0.000023
      3.44411      1.41654      1.41623         0.000163     -0.000228      0.000148
     11.13192      1.41654      1.41623        -0.000287     -0.000085     -0.000053
      3.44411      7.04032      1.45753         0.000069     -0.000028      0.000028
     11.13192      7.04032      1.45753        -0.000152      0.000027     -0.000027
      3.44411      1.45890      7.03987        -0.000510      0.002711     -0.002710
     11.13192      1.45890      7.03987        -0.000275     -0.000035      0.000035
      3.44411      7.08269      7.08117         0.000163     -0.000148      0.000229
     11.13192      7.08269      7.08117        -0.000287      0.000053      0.000085
      7.68691      4.22843      1.43688        -0.000152     -0.000110      0.000058
     15.37473      4.22843      1.43688         0.000401     -0.000206     -0.000248
      7.68691      9.85222      1.47818        -0.000021      0.000026      0.000027
     15.37473      9.85222      1.47818         0.000180      0.000004     -0.000013
      7.68691      4.27079      7.06052        -0.000196     -0.000032     -0.000032
     15.37473      4.27079      7.06052        -0.001743      0.002586      0.003273
      7.68691      9.89458      7.10182        -0.000141      0.000057     -0.000106
     15.37473      9.89458      7.10182         0.000315     -0.000170     -0.000110
      0.00091      1.43772      4.22805        -0.001884     -0.003275     -0.002587
      7.68873      1.43772      4.22805        -0.000341      0.000033      0.000031
      0.00091      7.06151      4.26935         0.000256      0.000248      0.000206
      7.68873      7.06151      4.26935        -0.000297     -0.000058      0.000110
[...]
     11.53173      2.81189      0.02065         0.000390      0.000001      0.000062
      3.84391      8.43568      0.06194        -0.000134      0.000000     -0.000000
     11.53173      8.43568      0.06194         0.000149     -0.000012      0.000012
      3.84391      2.85426      5.64429        -0.015808      0.001388     -0.001385
     11.53173      2.85426      5.64429         0.000568      0.000009     -0.000009
      3.84391      8.47804      5.68558        -0.000538     -0.000161     -0.000049
     11.53173      8.47804      5.68558         0.000390     -0.000062     -0.000001
      3.84391      0.02118      2.81182        -0.000067     -0.000826     -0.000809
     11.53173      0.02118      2.81182         0.000303      0.000183      0.000125
      3.84391      5.64497      2.85311        -0.000268      0.000339     -0.000338
     11.53173      5.64497      2.85311         0.000298     -0.000083      0.000083
      3.84391      0.06355      8.43546        -0.000226     -0.000216      0.000216
     11.53173      0.06355      8.43546         0.000254      0.000079     -0.000079
      3.84391      5.68733      8.47675        -0.000067      0.000810      0.000827
     11.53173      5.68733      8.47675         0.000304     -0.000125     -0.000183
    total drift:                               -0.001123      0.000004     -0.000005

  FREE ENERGIE OF THE ION-ELECTRON SYSTEM (eV)
  free  energy   TOTEN  =      -822.06168187 eV

  energy  without entropy=     -822.06168187  energy(sigma->0) =     -822.06168187