 vasp.5.4.4.18Apr17-6-g9f103f2a35 (build Oct 25 2017 14:42:18) complex

 executed on             LinuxIFC date 2021.04.28  23:18:39

 INCAR:
 POTCAR:    PAW_PBE Li_sv 10Sep2004
 POTCAR:    PAW_PBE O 08Apr2002
 POTCAR:    PAW_PBE S 06Sep2000
 POTCAR:    PAW_PBE Fe_pv 02Aug2007

 POTCAR:    PAW_PBE Li_sv 10Sep2004

 POTCAR:    PAW_PBE O 08Apr2002

 POTCAR:    PAW_PBE S 06Sep2000

 POTCAR:    PAW_PBE Fe_pv 02Aug2007

  PAW_PBE Li_sv 10Sep2004               :
  PAW_PBE O 08Apr2002                   :
  PAW_PBE S 06Sep2000                   :
  PAW_PBE Fe_pv 02Aug2007               :

 POSCAR: # Compound: Li64O32S64Fe64. Old comment:
  positions in direct lattice
 exchange correlation table for  LEXCH =        8
   RHO(1)=    0.500       N(1)  =     2000
   RHO(2)=  100.500       N(2)  =     4000

 ion  position               nearest neighbor table
   1  0.112  0.031  0.000-  69 1.94  74 1.94  97 2.55 133 2.55
   2  0.612  0.031  0.000-  70 1.94  73 1.94  98 2.55 134 2.55
   3  0.112  0.531  0.000-  71 1.94  76 1.94  99 2.55 135 2.55
   4  0.612  0.531  0.000-  72 1.94  75 1.94 100 2.55 136 2.55
   5  0.112  0.031  0.500-  65 1.94  78 1.94 101 2.55 129 2.55
   6  0.612  0.031  0.500-  66 1.94  77 1.94 102 2.55 130 2.55
   7  0.112  0.531  0.500-  67 1.94  80 1.94 103 2.55 131 2.55
   8  0.612  0.531  0.500-  68 1.94  79 1.94 104 2.55 132 2.55
   9  0.362  0.495  0.000-  75 1.94  71 1.94 121 2.55 157 2.55
  10  0.862  0.495  0.000-  76 1.94  72 1.94 122 2.55 158 2.55
  11  0.362  0.995  0.000-  73 1.94  69 1.94 123 2.55 159 2.55
  12  0.862  0.995  0.000-  74 1.94  70 1.94 124 2.55 160 2.55
  13  0.362  0.495  0.500-  79 1.94  67 1.94 125 2.55 153 2.55
  14  0.862  0.495  0.500-  80 1.94  68 1.94 126 2.55 154 2.55
  15  0.362  0.995  0.500-  77 1.94  65 1.94 127 2.55 155 2.55
  16  0.862  0.995  0.500-  78 1.94  66 1.94 128 2.55 156 2.55
  17  0.112  0.245  0.000-  81 1.94  94 1.94  97 2.55 133 2.55
  18  0.612  0.245  0.000-  82 1.94  93 1.94  98 2.55 134 2.55
  19  0.112  0.745  0.000-  83 1.94  96 1.94  99 2.55 135 2.55
  20  0.612  0.745  0.000-  84 1.94  95 1.94 100 2.55 136 2.55
  21  0.112  0.245  0.500-  85 1.94  90 1.94 101 2.55 129 2.55
  22  0.612  0.245  0.500-  86 1.94  89 1.94 102 2.55 130 2.55
  23  0.112  0.745  0.500-  87 1.94  92 1.94 103 2.55 131 2.55
  24  0.612  0.745  0.500-  88 1.94  91 1.94 104 2.55 132 2.55
  25  0.362  0.281  0.000-  93 1.94  81 1.94 121 2.55 157 2.55
  26  0.862  0.281  0.000-  94 1.94  82 1.94 122 2.55 158 2.55
  27  0.362  0.781  0.000-  95 1.94  83 1.94 123 2.55 159 2.55
  28  0.862  0.781  0.000-  96 1.94  84 1.94 124 2.55 160 2.55
  29  0.362  0.281  0.500-  89 1.94  85 1.94 125 2.55 153 2.55
  30  0.862  0.281  0.500-  90 1.94  86 1.94 126 2.55 154 2.55
  31  0.362  0.781  0.500-  91 1.94  87 1.94 127 2.55 155 2.55
  32  0.862  0.781  0.500-  92 1.94  88 1.94 128 2.55 156 2.55
  33  0.255  0.138  0.500-  65 1.94  85 1.94 137 2.55 109 2.55
  34  0.755  0.138  0.500-  66 1.94  86 1.94 138 2.55 110 2.55
  35  0.255  0.638  0.500-  67 1.94  87 1.94 139 2.55 111 2.55
  36  0.755  0.638  0.500-  68 1.94  88 1.94 140 2.55 112 2.55
  37  0.255  0.138  1.000-  69 1.94  81 1.94 141 2.55 105 2.55
  38  0.755  0.138  1.000-  70 1.94  82 1.94 142 2.55 106 2.55
  39  0.255  0.638  1.000-  71 1.94  83 1.94 143 2.55 107 2.55
  40  0.755  0.638  1.000-  72 1.94  84 1.94 144 2.55 108 2.55
  41  0.469  0.138  0.500-  77 1.94  89 1.94 137 2.55 109 2.55
  42  0.969  0.138  0.500-  78 1.94  90 1.94 138 2.55 110 2.55
  43  0.469  0.638  0.500-  79 1.94  91 1.94 139 2.55 111 2.55
  44  0.969  0.638  0.500-  80 1.94  92 1.94 140 2.55 112 2.55
  45  0.469  0.138  1.000-  73 1.94  93 1.94 141 2.55 105 2.55
  46  0.969  0.138  1.000-  74 1.94  94 1.94 142 2.55 106 2.55
  47  0.469  0.638  1.000-  75 1.94  95 1.94 143 2.55 107 2.55
  48  0.969  0.638  1.000-  76 1.94  96 1.94 144 2.55 108 2.55
  49  0.219  0.388  0.500-  85 1.94  67 1.94 145 2.55 117 2.55
  50  0.719  0.388  0.500-  86 1.94  68 1.94 146 2.55 118 2.55
  51  0.219  0.888  0.500-  87 1.94  65 1.94 147 2.55 119 2.55
  52  0.719  0.888  0.500-  88 1.94  66 1.94 148 2.55 120 2.55
  53  0.219  0.388  1.000-  81 1.94  71 1.94 149 2.55 113 2.55
  54  0.719  0.388  1.000-  82 1.94  72 1.94 150 2.55 114 2.55
  55  0.219  0.888  1.000-  83 1.94  69 1.94 151 2.55 115 2.55
  56  0.719  0.888  1.000-  84 1.94  70 1.94 152 2.55 116 2.55
  57  0.005  0.388  0.500-  90 1.94  80 1.94 145 2.55 117 2.55
  58  0.505  0.388  0.500-  89 1.94  79 1.94 146 2.55 118 2.55
  59  0.005  0.888  0.500-  92 1.94  78 1.94 147 2.55 119 2.55
  60  0.505  0.888  0.500-  91 1.94  77 1.94 148 2.55 120 2.55
[...]
 210  0.697  0.473  0.341-  68 2.04 114 2.44 132 2.72 146 2.72 140 2.72 154 2.72
 211  0.197  0.973  0.341-  65 2.04 115 2.44 129 2.72 147 2.72 137 2.72 155 2.72
 212  0.697  0.973  0.341-  66 2.04 116 2.44 130 2.72 148 2.72 138 2.72 156 2.72
 213  0.197  0.473  0.841-  71 2.04 117 2.44 135 2.72 149 2.72 143 2.72 157 2.72
 214  0.697  0.473  0.841-  72 2.04 118 2.44 136 2.72 150 2.72 144 2.72 158 2.72
 215  0.197  0.973  0.841-  69 2.04 119 2.44 133 2.72 151 2.72 141 2.72 159 2.72
 216  0.697  0.973  0.841-  70 2.04 120 2.44 134 2.72 152 2.72 142 2.72 160 2.72
 217  0.447  0.473  0.341-  79 2.04 121 2.44 139 2.72 132 2.72 153 2.72 146 2.72
 218  0.947  0.473  0.341-  80 2.04 122 2.44 140 2.72 131 2.72 154 2.72 145 2.72
 219  0.447  0.973  0.341-  77 2.04 123 2.44 137 2.72 130 2.72 155 2.72 148 2.72
 220  0.947  0.973  0.341-  78 2.04 124 2.44 138 2.72 129 2.72 156 2.72 147 2.72
 221  0.447  0.473  0.841-  75 2.04 125 2.44 143 2.72 136 2.72 157 2.72 150 2.72
 222  0.947  0.473  0.841-  76 2.04 126 2.44 144 2.72 135 2.72 158 2.72 149 2.72
 223  0.447  0.973  0.841-  73 2.04 127 2.44 141 2.72 134 2.72 159 2.72 152 2.72
 224  0.947  0.973  0.841-  74 2.04 128 2.44 142 2.72 133 2.72 160 2.72 151 2.72

IMPORTANT INFORMATION: All symmetrisations will be switched off!
NOSYMM: (Re-)initialisation of all symmetry stuff for point group C_1.

 KPOINTS: # No comment

Automatic generation of k-mesh.
Space group operators:
 irot       det(A)        alpha          n_x          n_y          n_z        tau_x        tau_y        tau_z
    1     1.000000     0.000001     1.000000     0.000000     0.000000     0.000000     0.000000     0.000000

 Subroutine IBZKPT returns following result:

 Found      8 irreducible k-points:

 Following reciprocal coordinates:
            Coordinates               Weight
  0.000000  0.000000  0.000000      1.000000
  0.500000  0.000000  0.000000      1.000000
  0.000000  0.500000  0.000000      1.000000
  0.500000  0.500000  0.000000      1.000000
  0.000000 -0.000000  0.500000      1.000000
  0.500000  0.000000  0.500000      1.000000
 -0.000000  0.500000  0.500000      1.000000
  0.500000  0.500000  0.500000      1.000000

 Following cartesian coordinates:
            Coordinates               Weight
  0.000000  0.000000  0.000000      1.000000
  0.032519  0.000014  0.009696      1.000000
  0.000002  0.032519  0.009696      1.000000
  0.032521  0.032532  0.019392      1.000000
  0.000032  0.000032  0.038891      1.000000
  0.032551  0.000046  0.048587      1.000000
  0.000035  0.032551  0.048587      1.000000
  0.032553  0.032564  0.058283      1.000000

 SYSTEM =  unknown system
 POSCAR =  # Compound: Li64O32S64Fe64. Old comment:

 Startparameter for this run:
   NWRITE =      1    write-flag & timer
   PREC   = accura    normal or accurate (medium, high low for compatibility)
   ISTART =      0    job   : 0-new  1-cont  2-samecut
   ICHARG =      1    charge: 1-file 2-atom 10-const
   ISPIN  =      2    spin polarized calculation?
   LNONCOLLINEAR =      F non collinear calculations
   LSORBIT =      F    spin-orbit coupling
   INIWAV =      1    electr: 0-lowe 1-rand  2-diag
   LASPH  =      T    aspherical Exc in radial PAW
   METAGGA=      F    non-selfconsistent MetaGGA calc.

 Electronic Relaxation 1
   ENCUT  =  650.0 eV  47.77 Ry    6.91 a.u.  31.97 31.97 29.02*2*pi/ulx,y,z
   ENINI  =  650.0     initial cutoff
   ENAUG  =  628.9 eV  augmentation charge cutoff
   NELM   =    200;   NELMIN=  8; NELMDL=  0     # of ELM steps
   EDIFF  = 0.1E-05   stopping-criterion for ELM
   LREAL  =      F    real-space projection
   NLSPLINE    = F    spline interpolate recip. space projectors
   LCOMPAT=      F    compatible to vasp.4.4
   GGA_COMPAT  = T    GGA compatible to vasp.4.4-vasp.4.6
   LMAXPAW     = -100 max onsite density
   LMAXMIX     =    4 max onsite mixed and CHGCAR
   VOSKOWN=      0    Vosko Wilk Nusair interpolation
   ROPT   =    0.00000   0.00000   0.00000   0.00000
 Ionic relaxation
   EDIFFG = 0.1E-04   stopping-criterion for IOM
   NSW    =      0    number of steps for IOM
   NBLOCK =      1;   KBLOCK =      1    inner block; outer block
   IBRION =     -1    ionic relax: 0-MD 1-quasi-New 2-CG
   NFREE  =      0    steps in history (QN), initial steepest desc. (CG)
   ISIF   =      2    stress and relaxation
   IWAVPR =     10    prediction:  0-non 1-charg 2-wave 3-comb
   ISYM   =      0    0-nonsym 1-usesym 2-fastsym
   LCORR  =      T    Harris-Foulkes like correction to forces

   POTIM  = 0.5000    time-step for ionic-motion
   TEIN   =    0.0    initial temperature
   TEBEG  =    0.0;   TEEND  =   0.0 temperature during run
   SMASS  =  -3.00    Nose mass-parameter (am)
   estimated Nose-frequenzy (Omega)   =  0.10E-29 period in steps =****** mass=  -0.541E-26a.u.
   SCALEE = 1.0000    scale energy and forces
   NPACO  =    256;   APACO  = 16.0  distance and # of slots for P.C.
   PSTRESS=    0.0 pullay stress

  Mass of Ions in am
   POMASS =   7.01 16.00 32.07 55.85
  Ionic Valenz
   ZVAL   =   3.00  6.00  6.00 14.00
  Atomic Wigner-Seitz radii
  virtual crystal weights
   VCA    =   1.00  1.00  1.00  1.00
   NELECT =    1664.0000    total number of electrons
   NUPDOWN=      -1.0000    fix difference up-down

 DOS related values:
   EMIN   =  10.00;   EMAX   =-10.00  energy-range for DOS
   EFERMI =   0.00
   ISMEAR =     0;   SIGMA  =   0.05  broadening in eV -4-tet -1-fermi 0-gaus

 Electronic relaxation 2 (details)
   IALGO  =     58    algorithm
   LDIAG  =      T    sub-space diagonalisation (order eigenvalues)
   LSUBROT=      F    optimize rotation matrix (better conditioning)
   TURBO    =      0    0=normal 1=particle mesh
   IRESTART =      0    0=no restart 2=restart with 2 vectors
   NREBOOT  =      0    no. of reboots
   NMIN     =      0    reboot dimension
   EREF     =   0.00    reference energy to select bands
   IMIX   =      4    mixing-type and parameters
     AMIX     =   0.40;   BMIX     =  1.00
     AMIX_MAG =   1.60;   BMIX_MAG =  1.00
     AMIN     =   0.10
     WC   =   100.;   INIMIX=   1;  MIXPRE=   1;  MAXMIX= -45

 Intra band minimization:
   WEIMIN = 0.0000     energy-eigenvalue tresh-hold
   EBREAK =  0.21E-09  absolut break condition
   DEPER  =   0.30     relativ break condition

   TIME   =   0.40     timestep for ELM

  volume/ion in A,a.u.               =      13.58        91.61
  Fermi-wavevector in a.u.,A,eV,Ry     =   1.339026  2.530392 24.395113  1.792990
  Thomas-Fermi vector in A             =   2.467450

 Write flags
[...]
     58     -46.3879      1.00000
     59     -46.3878      1.00000
     60     -46.3873      1.00000
[...]
   1194      13.9352      0.00000
   1195      13.9499      0.00000
   1196      13.9614      0.00000
   1197      13.9796      0.00000
   1198      13.9840      0.00000
   1199      13.9959      0.00000
   1200      14.0112      0.00000
   1201      14.0239      0.00000
   1202      14.0506      0.00000
   1203      14.0633      0.00000
   1204      14.1319      0.00000
   1205      14.1412      0.00000
   1206      14.2113      0.00000
   1207      14.2355      0.00000
   1208      14.2967      0.00000

 soft charge-density along one line, spin component           1
         0         1         2         3         4         5         6         7         8         9
 total charge-density along one line

 soft charge-density along one line, spin component           2
         0         1         2         3         4         5         6         7         8         9
 total charge-density along one line

------------------------ aborting loop because EDIFF is reached ----------------------------------------

  FORCE on cell =-STRESS in cart. coord.  units (eV):
  Direction    XX          YY          ZZ          XY          YZ          ZX
  Alpha Z  4690.73087  4690.73087  4690.73087
  Ewald  -46956.54029-46956.54717-29259.72693     0.37563    14.30470    12.42793
  Hartree 16965.55260 16964.38947 27901.88250     0.19224     8.81806     7.30696
  E(xc)   -9003.44871 -9003.44444 -8983.22174     0.00059     0.01656     0.01554
  Local    2652.18955  2654.86514-24495.65708    -0.56548   -21.94416   -18.65548
  n-local   690.24546   690.35880  1159.48320    -0.00040     0.37819     0.36280
  augment  9639.37045  9638.37208  8762.95463     0.00182    -0.68513    -0.61215
  Kinetic 21321.44763 21320.88186 20223.14830    -0.00425    -0.89085    -0.83552
  Fock        0.00000     0.00000     0.00000     0.00000     0.00000     0.00000
  Total      -0.45244    -0.39340    -0.40626     0.00014    -0.00263     0.01008
  in kB      -0.23838    -0.20727    -0.21404     0.00008    -0.00138     0.00531

 VOLUME and BASIS-vectors are now :
  energy-cutoff  :      650.00
  volume of cell :     3040.96
      direct lattice vectors                 reciprocal lattice vectors
    15.379597440  0.002607980 -0.012678040     0.065037189  0.000027720  0.019391817
    -0.002774880 15.379619260 -0.012678060     0.000004957  0.065037102  0.019391811
    -3.833588240 -3.834934540 12.862750640     0.000064108  0.000064131  0.077782096

  length of vectors
    15.379602887 15.379624736 13.958992648     0.067866628  0.067866538  0.077782149

 FORCES acting on ions:
    Electron-Ion                     Ewald-Force                    Non-Local-Force
   0.132E+00 -.139E+02 0.404E+00   -.135E+00 0.139E+02 -.414E+00   -.245E-03 -.374E-01 0.274E-02
   0.760E-01 -.138E+02 -.475E-02   -.778E-01 0.139E+02 0.495E-02   0.157E-02 -.379E-01 0.505E-04
   0.110E-01 -.138E+02 0.163E-01   -.113E-01 0.139E+02 -.168E-01   0.492E-03 -.379E-01 0.410E-03
   0.282E-01 -.138E+02 0.136E-01   -.290E-01 0.139E+02 -.135E-01   0.835E-03 -.380E-01 0.965E-04
   0.278E-01 -.138E+02 -.196E-01   -.282E-01 0.139E+02 0.204E-01   0.588E-03 -.378E-01 -.300E-03
   0.375E-01 -.138E+02 0.487E-01   -.381E-01 0.139E+02 -.496E-01   0.722E-03 -.382E-01 0.665E-03
   0.177E-01 -.138E+02 0.815E-02   -.181E-01 0.139E+02 -.781E-02   0.583E-03 -.381E-01 -.318E-04
   0.239E-01 -.138E+02 0.212E-01   -.244E-01 0.139E+02 -.216E-01   0.658E-03 -.379E-01 0.365E-03
   0.753E-02 0.138E+02 -.742E-02   -.738E-02 -.139E+02 0.777E-02   0.534E-04 0.384E-01 -.255E-03
   0.282E-01 0.138E+02 0.457E-03   -.286E-01 -.139E+02 -.764E-03   0.435E-03 0.383E-01 0.119E-03
   0.129E+00 0.138E+02 -.393E+00   -.132E+00 -.138E+02 0.402E+00   -.634E-03 0.389E-01 -.263E-02
   0.762E-01 0.138E+02 0.189E-01   -.776E-01 -.139E+02 -.193E-01   0.116E-02 0.384E-01 0.172E-03
   0.368E-02 0.138E+02 -.577E-02   -.362E-02 -.139E+02 0.572E-02   0.897E-04 0.383E-01 -.355E-04
   0.284E-01 0.138E+02 -.504E-03   -.289E-01 -.139E+02 0.319E-03   0.496E-03 0.383E-01 0.483E-04
   -.267E-01 0.138E+02 -.867E-02   0.271E-01 -.139E+02 0.861E-02   -.138E-03 0.384E-01 -.381E-04
   0.387E-01 0.138E+02 0.247E-02   -.394E-01 -.139E+02 -.269E-02   0.624E-03 0.383E-01 0.750E-04
   -.350E-02 0.138E+02 0.287E-01   0.463E-02 -.138E+02 -.322E-01   -.516E-03 0.370E-01 0.200E-02
   0.441E-01 0.139E+02 -.106E-01   -.452E-01 -.139E+02 0.107E-01   0.899E-03 0.383E-01 -.113E-03
   -.182E-02 0.139E+02 0.168E-01   0.281E-02 -.139E+02 -.187E-01   -.448E-03 0.392E-01 0.812E-03
   0.395E-01 0.138E+02 -.940E-02   -.406E-01 -.139E+02 0.944E-02   0.939E-03 0.382E-01 -.522E-04
   0.279E-01 0.138E+02 -.373E-01   -.280E-01 -.139E+02 0.381E-01   0.201E-03 0.381E-01 -.480E-03
   0.343E-01 0.139E+02 0.309E-01   -.344E-01 -.139E+02 -.319E-01   0.280E-03 0.386E-01 0.494E-03
   0.140E-01 0.138E+02 -.964E-02   -.139E-01 -.139E+02 0.992E-02   0.126E-03 0.384E-01 -.198E-03
   0.236E-01 0.138E+02 0.337E-02   -.237E-01 -.139E+02 -.385E-02   0.257E-03 0.382E-01 0.206E-03
   -.159E-02 -.138E+02 -.811E-02   0.219E-02 0.138E+02 0.981E-02   -.642E-04 -.372E-01 -.653E-03
   0.431E-01 -.138E+02 0.234E-01   -.447E-01 0.139E+02 -.238E-01   0.139E-02 -.381E-01 0.294E-03
   -.315E-02 -.139E+02 -.197E-01   0.389E-02 0.139E+02 0.230E-01   -.123E-03 -.393E-01 -.183E-02
   0.477E-01 -.138E+02 0.247E-01   -.492E-01 0.138E+02 -.251E-01   0.135E-02 -.380E-01 0.337E-03
   -.253E-01 -.138E+02 0.121E-01   0.252E-01 0.139E+02 -.121E-01   0.276E-03 -.380E-01 0.148E-03
   0.402E-01 -.138E+02 0.173E-01   -.413E-01 0.139E+02 -.174E-01   0.104E-02 -.380E-01 0.195E-03
   0.577E-02 -.138E+02 0.905E-02   -.615E-02 0.139E+02 -.896E-02   0.512E-03 -.380E-01 0.944E-04
   0.305E-01 -.138E+02 0.203E-01   -.314E-01 0.139E+02 -.204E-01   0.917E-03 -.380E-01 0.244E-03
   -.139E+02 -.222E-01 -.585E-01   0.139E+02 0.222E-01 0.575E-01   -.395E-01 -.188E-03 0.962E-03
   -.138E+02 -.242E-01 0.204E-01   0.139E+02 0.244E-01 -.205E-01   -.380E-01 -.215E-03 0.122E-03
   -.139E+02 -.244E-01 -.378E-02   0.139E+02 0.246E-01 0.394E-02   -.385E-01 -.221E-03 -.262E-04
   -.138E+02 -.223E-01 0.893E-02   0.139E+02 0.224E-01 -.884E-02   -.382E-01 -.190E-03 0.878E-05
   -.141E+02 0.319E-01 -.561E-01   0.141E+02 -.326E-01 0.584E-01   -.407E-01 -.108E-03 -.118E-02
   -.138E+02 -.254E-01 0.708E-02   0.138E+02 0.255E-01 -.718E-02   -.380E-01 -.208E-03 0.140E-03
   -.139E+02 -.265E-01 0.509E-03   0.139E+02 0.266E-01 -.241E-03   -.386E-01 -.186E-03 -.111E-03
   -.138E+02 -.219E-01 0.511E-02   0.139E+02 0.221E-01 -.512E-02   -.382E-01 -.207E-03 0.669E-04
   0.138E+02 -.143E-01 0.408E-01   -.138E+02 0.148E-01 -.396E-01   0.369E-01 -.597E-03 -.117E-02
   0.138E+02 -.165E-01 -.256E-01   -.139E+02 0.171E-01 0.259E-01   0.383E-01 -.619E-03 -.253E-03
   0.138E+02 -.164E-01 -.140E-01   -.139E+02 0.169E-01 0.141E-01   0.379E-01 -.613E-03 -.248E-03
   0.138E+02 -.142E-01 -.141E-01   -.139E+02 0.147E-01 0.141E-01   0.381E-01 -.588E-03 -.130E-03
   0.139E+02 0.473E-01 -.797E-01   -.139E+02 -.468E-01 0.823E-01   0.389E-01 -.530E-03 -.163E-02
   0.139E+02 -.597E-01 0.322E-01   -.139E+02 0.604E-01 -.335E-01   0.388E-01 -.794E-03 0.418E-03
   0.138E+02 -.300E-01 -.218E-01   -.139E+02 0.312E-01 0.221E-01   0.379E-01 -.109E-02 -.298E-03
   0.138E+02 -.241E-02 -.805E-02   -.139E+02 0.216E-02 0.793E-02   0.381E-01 -.935E-04 -.106E-03
   0.138E+02 -.299E-01 -.336E-01   -.139E+02 0.305E-01 0.340E-01   0.377E-01 -.694E-03 -.383E-03
   0.138E+02 -.778E-02 -.396E-02   -.139E+02 0.823E-02 0.347E-02   0.383E-01 -.561E-03 0.170E-03
   0.138E+02 -.925E-03 -.366E-01   -.139E+02 0.127E-02 0.370E-01   0.377E-01 -.510E-03 -.385E-03
   0.138E+02 -.229E-01 -.195E-02   -.139E+02 0.235E-01 0.145E-02   0.383E-01 -.641E-03 0.177E-03
   0.138E+02 -.185E-01 -.157E-01   -.138E+02 0.190E-01 0.156E-01   0.378E-01 -.588E-03 -.838E-04
   0.138E+02 -.141E-01 -.129E-01   -.139E+02 0.146E-01 0.130E-01   0.382E-01 -.603E-03 -.224E-03
   0.136E+02 0.379E-01 0.391E-01   -.136E+02 -.382E-01 -.412E-01   0.357E-01 -.548E-03 0.971E-03
   0.139E+02 -.174E-01 -.149E-01   -.139E+02 0.179E-01 0.151E-01   0.384E-01 -.602E-03 -.280E-03
   -.138E+02 -.309E-01 -.460E-02   0.139E+02 0.311E-01 0.528E-02   -.381E-01 -.238E-03 -.371E-03
   -.139E+02 -.876E-02 0.192E-01   0.139E+02 0.872E-02 -.194E-01   -.386E-01 -.112E-03 0.205E-03
   -.138E+02 -.156E-01 -.173E-02   0.139E+02 0.157E-01 0.239E-02   -.381E-01 -.158E-03 -.366E-03
   -.138E+02 -.378E-01 0.173E-01   0.139E+02 0.380E-01 -.175E-01   -.386E-01 -.299E-03 0.201E-03
[...]
   -.219E-01 0.582E+00 0.629E+02   0.244E-01 -.581E+00 -.615E+02   -.195E-02 -.271E-02 -.137E+01
   0.237E+00 -.350E-02 0.636E+02   -.241E+00 0.725E-02 -.622E+02   0.431E-02 -.388E-02 -.135E+01
   -.127E-01 0.549E-01 0.635E+02   0.130E-01 -.519E-01 -.621E+02   0.167E-03 -.326E-02 -.135E+01
   0.752E-01 0.658E-01 0.635E+02   -.774E-01 -.629E-01 -.621E+02   0.231E-02 -.319E-02 -.135E+01
   -.349E+00 0.657E-01 0.635E+02   0.348E+00 -.628E-01 -.621E+02   0.163E-02 -.323E-02 -.135E+01
   0.161E+00 0.549E-01 0.635E+02   -.164E+00 -.519E-01 -.621E+02   0.269E-02 -.326E-02 -.135E+01
   0.113E-02 0.144E+00 0.635E+02   0.373E-03 -.141E+00 -.622E+02   -.993E-03 -.388E-02 -.135E+01
   0.106E+00 0.519E-01 0.635E+02   -.109E+00 -.465E-01 -.621E+02   0.303E-02 -.543E-02 -.135E+01
   0.144E-01 -.437E+00 0.641E+02   -.124E-01 0.443E+00 -.628E+02   -.185E-02 -.490E-02 -.134E+01
   0.244E+00 0.144E+00 0.634E+02   -.248E+00 -.140E+00 -.621E+02   0.391E-02 -.377E-02 -.136E+01
   0.399E-01 0.815E-01 0.635E+02   -.406E-01 -.775E-01 -.621E+02   0.779E-03 -.437E-02 -.135E+01
   0.721E-01 0.815E-01 0.635E+02   -.730E-01 -.775E-01 -.622E+02   0.107E-02 -.435E-02 -.135E+01
   0.140E+00 0.813E-01 0.633E+02   -.141E+00 -.773E-01 -.619E+02   0.100E-02 -.433E-02 -.136E+01
   0.172E+00 0.817E-01 0.637E+02   -.174E+00 -.777E-01 -.624E+02   0.130E-02 -.432E-02 -.135E+01
   -.150E+00 0.802E-01 0.116E-02   0.121E-12 0.402E-12 0.225E-11   0.172E+00 -.103E+00 -.117E-02

 POSITION                                       TOTAL-FORCE (eV/Angst)
      1.72322      0.48027     -0.00178        -0.003652      0.000564     -0.006803
      9.41302      0.48157     -0.00812        -0.000367     -0.000212      0.000247
      1.72184      8.17008     -0.00812         0.000092     -0.000206     -0.000077
      9.41164      8.17138     -0.01446        -0.000045     -0.000201      0.000167
     -0.19357     -1.43720      6.42959         0.000059     -0.000305      0.000444
      7.49623     -1.43590      6.42325         0.000001     -0.000107     -0.000232
     -0.19496      6.25261      6.42325         0.000062     -0.000067      0.000310
      7.49484      6.25391      6.41691         0.000019     -0.000359     -0.000030
      5.56685      7.60898     -0.01071         0.000100      0.000319      0.000095
     13.25664      7.61028     -0.01705        -0.000059      0.000316     -0.000188
      5.56546     15.29879     -0.01705        -0.003592      0.001087      0.006819
     13.25526     15.30009     -0.02339        -0.000379      0.000303     -0.000270
      3.65005      5.69151      6.42066         0.000049      0.000318     -0.000083
     11.33985      5.69282      6.41433        -0.000094      0.000294     -0.000137
      3.64866     13.38132      6.41433         0.000113      0.000310     -0.000099
     11.33846     13.38263      6.40799        -0.000173      0.000331     -0.000141
      1.72264      3.76342     -0.00437         0.000507      0.001223     -0.001422
      9.41244      3.76473     -0.01071        -0.000323      0.000240      0.000014
      1.72125     11.45323     -0.01071         0.000436     -0.000568     -0.001048
      9.41105     11.45454     -0.01705        -0.000310      0.000408     -0.000018
     -0.19415      1.84596      6.42700         0.000025      0.000407      0.000245
      7.49564      1.84726      6.42066         0.000012      0.000208     -0.000459
     -0.19554      9.53576      6.42066         0.000070      0.000176      0.000075
      7.49426      9.53707      6.41433         0.000012      0.000466     -0.000271
      5.56743      4.32582     -0.00812         0.000435     -0.001096      0.001051
     13.25723      4.32713     -0.01446        -0.000310     -0.000121     -0.000034
      5.56604     12.01563     -0.01446         0.000509      0.000718      0.001459
     13.25584     12.01694     -0.02080        -0.000291     -0.000274     -0.000048
      3.65064      2.40836      6.42325         0.000122     -0.000229      0.000134
     11.34044      2.40966      6.41691        -0.000161     -0.000204      0.000119
      3.64925     10.09817      6.41691         0.000031     -0.000189      0.000180
     11.33905     10.09947      6.41057        -0.000084     -0.000218      0.000083
      2.00950      0.20478      6.42624         0.000285     -0.000005     -0.000070
      9.69930      0.20609      6.41990        -0.000570      0.000006     -0.000036
      2.00811      7.89459      6.41990        -0.000193      0.000028      0.000134
      9.69791      7.89590      6.41356        -0.000353      0.000009      0.000096
      0.09270     -1.71269     12.85761         0.002571     -0.000718      0.001144
      7.78250     -1.71138     12.85127        -0.000599     -0.000001      0.000042
      0.09132      5.97712     12.85127        -0.000030      0.000013      0.000156
      7.78111      5.97843     12.84494        -0.000438      0.000010      0.000061
      5.29265      0.20535      6.42365         0.000668     -0.000003      0.000016
     12.98245      0.20665      6.41731        -0.000073      0.000021      0.000037
      5.29126      7.89516      6.41731         0.000207     -0.000003     -0.000083
     12.98106      7.89646      6.41097         0.000144     -0.000003     -0.000122
      3.37585     -1.71212     12.85503        -0.000681      0.000035      0.001014
     11.06565     -1.71082     12.84869        -0.000588      0.000014     -0.000862
      3.37447      5.97769     12.84869         0.000160      0.000259      0.000007
     11.06426      5.97899     12.84235         0.000123     -0.000252     -0.000236
      1.44705      4.04960      6.42365         0.000400      0.000043     -0.000004
      9.13685      4.05090      6.41731        -0.000052     -0.000011     -0.000319
      1.44567     11.73941      6.41731         0.000427     -0.000061      0.000008
      9.13547     11.74071      6.41097        -0.000075      0.000012     -0.000324
     -0.46974      2.13213     12.85503         0.000412     -0.000002     -0.000169
      7.22006      2.13344     12.84869         0.000010     -0.000018     -0.000108
     -0.47113      9.82194     12.84869         0.003021     -0.000697     -0.001075
      7.21867      9.82325     12.84235        -0.000155      0.000004     -0.000105
     -1.83610      4.04903      6.42624        -0.000467     -0.000006      0.000308
      5.85370      4.05034      6.41990        -0.000071     -0.000052      0.000009
     -1.83748     11.73884      6.41990        -0.000450      0.000014      0.000292
      5.85232     11.74015      6.41356        -0.000095      0.000048      0.000004
[...]
      9.41538      5.97198      4.37165        -0.000213     -0.000489     -0.000168
      1.72420     13.66048      4.37165         0.000342     -0.001156      0.004899
      9.41400     13.66179      4.36531        -0.000579     -0.000029     -0.000401
     -0.19121      4.05320     10.80937         0.000292     -0.000183     -0.000030
      7.49859      4.05451     10.80303        -0.000023     -0.000184     -0.000194
     -0.19260     11.74301     10.80303         0.000274     -0.000217     -0.000046
      7.49720     11.74432     10.79669        -0.000145     -0.000192     -0.000160
      5.57050      5.97142      4.37487         0.000389     -0.000447     -0.000578
     13.26030      5.97273      4.36853        -0.000392      0.000081     -0.000208
      5.56912     13.66123      4.36853         0.000037      0.000862     -0.005317
     13.25891     13.66254      4.36219        -0.000626     -0.000406     -0.000004
      3.65371      4.05395     10.80624        -0.000016     -0.000225     -0.000042
     11.34351      4.05526     10.79990         0.000062     -0.000228     -0.000485
      3.65232     11.74376     10.79990        -0.000080     -0.000244      0.000756
     11.34212     11.74507     10.79356        -0.000053     -0.000220     -0.001275
    total drift:                                0.022592     -0.022600     -0.000012

  FREE ENERGIE OF THE ION-ELECTRON SYSTEM (eV)
  free  energy   TOTEN  =     -1169.82298728 eV

  energy  without entropy=    -1169.82298728  energy(sigma->0) =    -1169.82298728