 vasp.5.4.4.18Apr17-6-g9f103f2a35 (build Oct 25 2017 14:42:18) complex

 executed on             LinuxIFC date 2021.04.29  08:46:05

 INCAR:
 POTCAR:    PAW_PBE Li_sv 10Sep2004
 POTCAR:    PAW_PBE O 08Apr2002
 POTCAR:    PAW_PBE S 06Sep2000
 POTCAR:    PAW_PBE Fe_pv 02Aug2007

 POTCAR:    PAW_PBE Li_sv 10Sep2004

 POTCAR:    PAW_PBE O 08Apr2002

 POTCAR:    PAW_PBE S 06Sep2000

 POTCAR:    PAW_PBE Fe_pv 02Aug2007

  PAW_PBE Li_sv 10Sep2004               :
  PAW_PBE O 08Apr2002                   :
  PAW_PBE S 06Sep2000                   :
  PAW_PBE Fe_pv 02Aug2007               :

 POSCAR: # Compound: Li8O4S8Fe8. Old comment: Fe2
  positions in direct lattice
 exchange correlation table for  LEXCH =        8
   RHO(1)=    0.500       N(1)  =     2000
   RHO(2)=  100.500       N(2)  =     4000

 ion  position               nearest neighbor table
   1  0.224  0.062  0.000-   9 1.94  10 1.94  13 2.55  17 2.55
   2  0.724  0.989  0.000-  10 1.94   9 1.94  16 2.55  20 2.55
   3  0.224  0.489  0.000-  11 1.94  12 1.94  13 2.55  17 2.55
   4  0.724  0.562  0.000-  12 1.94  11 1.94  16 2.55  20 2.55
   5  0.511  0.276  1.000-   9 1.94  11 1.94  18 2.55  14 2.55
   6  0.938  0.276  1.000-  10 1.94  12 1.94  18 2.55  14 2.55
   7  0.438  0.776  1.000-  11 1.94   9 1.94  19 2.55  15 2.55
   8  0.011  0.776  1.000-  12 1.94  10 1.94  19 2.55  15 2.55
   9  0.474  0.026  1.000-   1 1.94   5 1.94   7 1.94   2 1.94  22 2.04  27 2.04
  10  0.974  0.026  0.000-   6 1.94   1 1.94   2 1.94   8 1.94  28 2.04  21 2.04
  11  0.474  0.526  0.000-   7 1.94   4 1.94   3 1.94   5 1.94  25 2.04  24 2.04
  12  0.974  0.526  1.000-   4 1.94   8 1.94   6 1.94   3 1.94  23 2.04  26 2.04
  13  0.300  0.352  0.303-  25 2.44   3 2.55   1 2.55  22 2.72  21 2.72  24 2.72  23 2.72
  14  0.800  0.352  0.303-  26 2.44   5 2.55   6 2.55  21 2.72  23 2.72  22 2.72  24 2.72
  15  0.300  0.852  0.303-  27 2.44   8 2.55   7 2.55  24 2.72  22 2.72  23 2.72  21 2.72
  16  0.800  0.852  0.303-  28 2.44   2 2.55   4 2.55  23 2.72  24 2.72  21 2.72  22 2.72
  17  0.148  0.200  0.697-  21 2.44   3 2.55   1 2.55  27 2.72  28 2.72  25 2.72  26 2.72
  18  0.648  0.200  0.697-  22 2.44   5 2.55   6 2.55  28 2.72  26 2.72  27 2.72  25 2.72
  19  0.148  0.700  0.697-  23 2.44   8 2.55   7 2.55  25 2.72  27 2.72  26 2.72  28 2.72
  20  0.648  0.700  0.697-  24 2.44   2 2.55   4 2.55  26 2.72  25 2.72  28 2.72  27 2.72
  21  0.054  0.105  0.318-  10 2.04  17 2.44  14 2.72  13 2.72  16 2.72  15 2.72
  22  0.554  0.105  0.318-   9 2.04  18 2.44  13 2.72  15 2.72  14 2.72  16 2.72
  23  0.054  0.605  0.318-  12 2.04  19 2.44  16 2.72  14 2.72  15 2.72  13 2.72
  24  0.554  0.605  0.318-  11 2.04  20 2.44  15 2.72  16 2.72  13 2.72  14 2.72
  25  0.395  0.446  0.682-  11 2.04  13 2.44  19 2.72  20 2.72  17 2.72  18 2.72
  26  0.895  0.446  0.682-  12 2.04  14 2.44  20 2.72  18 2.72  19 2.72  17 2.72
  27  0.395  0.946  0.682-   9 2.04  15 2.44  17 2.72  19 2.72  18 2.72  20 2.72
  28  0.895  0.946  0.682-  10 2.04  16 2.44  18 2.72  17 2.72  20 2.72  19 2.72

IMPORTANT INFORMATION: All symmetrisations will be switched off!
NOSYMM: (Re-)initialisation of all symmetry stuff for point group C_1.

 KPOINTS: # No comment

Automatic generation of k-mesh.
Space group operators:
 irot       det(A)        alpha          n_x          n_y          n_z        tau_x        tau_y        tau_z
    1     1.000000     0.000001     1.000000     0.000000     0.000000     0.000000     0.000000     0.000000

 Subroutine IBZKPT returns following result:

 Found     36 irreducible k-points:

 Following reciprocal coordinates:
            Coordinates               Weight
  0.000000  0.000000  0.000000      1.000000
  0.250000  0.000000  0.000000      2.000000
  0.500000  0.000000  0.000000      1.000000
  0.000000  0.250000  0.000000      2.000000
  0.250000  0.250000  0.000000      2.000000
  0.500000  0.250000  0.000000      2.000000
 -0.250000  0.250000 -0.000000      2.000000
  0.000000  0.500000  0.000000      1.000000
  0.250000  0.500000  0.000000      2.000000
  0.500000  0.500000  0.000000      1.000000
  0.000000 -0.000000  0.250000      2.000000
  0.250000  0.000000  0.250000      2.000000
  0.500000  0.000000  0.250000      2.000000
 -0.250000 -0.000000  0.250000      2.000000
 -0.000000  0.250000  0.250000      2.000000
  0.250000  0.250000  0.250000      2.000000
  0.500000  0.250000  0.250000      2.000000
 -0.250000  0.250000  0.250000      2.000000
  0.000000  0.500000  0.250000      2.000000
  0.250000  0.500000  0.250000      2.000000
  0.500000  0.500000  0.250000      2.000000
 -0.250000  0.500000  0.250000      2.000000
 -0.000000 -0.250000  0.250000      2.000000
  0.250000 -0.250000  0.250000      2.000000
  0.500000 -0.250000  0.250000      2.000000
 -0.250000 -0.250000  0.250000      2.000000
  0.000000 -0.000000  0.500000      1.000000
  0.250000 -0.000000  0.500000      2.000000
  0.500000  0.000000  0.500000      1.000000
 -0.000000  0.250000  0.500000      2.000000
  0.250000  0.250000  0.500000      2.000000
  0.500000  0.250000  0.500000      2.000000
 -0.250000  0.250000  0.500000      2.000000
 -0.000000  0.500000  0.500000      1.000000
  0.250000  0.500000  0.500000      2.000000
  0.500000  0.500000  0.500000      1.000000

 Following cartesian coordinates:
            Coordinates               Weight
  0.000000  0.000000  0.000000      1.000000
  0.032519  0.000014  0.009696      2.000000
  0.065037  0.000028  0.019392      1.000000
  0.000002  0.032519  0.009696      2.000000
  0.032521  0.032532  0.019392      2.000000
  0.065040  0.032546  0.029088      2.000000
 -0.032516  0.032505 -0.000000      2.000000
  0.000005  0.065037  0.019392      1.000000
  0.032524  0.065051  0.029088      2.000000
  0.065042  0.065065  0.038784      1.000000
  0.000032  0.000032  0.038891      2.000000
  0.032551  0.000046  0.048587      2.000000
  0.065069  0.000060  0.058283      2.000000
 -0.032487  0.000018  0.029195      2.000000
  0.000035  0.032551  0.048587      2.000000
  0.032553  0.032564  0.058283      2.000000
  0.065072  0.032578  0.067979      2.000000
 -0.032484  0.032537  0.038891      2.000000
  0.000037  0.065069  0.058283      2.000000
  0.032556  0.065083  0.067979      2.000000
  0.065074  0.065097  0.077675      2.000000
 -0.032482  0.065055  0.048587      2.000000
  0.000030 -0.032486  0.029195      2.000000
  0.032548 -0.032473  0.038891      2.000000
  0.065067 -0.032459  0.048587      2.000000
 -0.032489 -0.032500  0.019499      2.000000
  0.000064  0.000064  0.077782      1.000000
  0.032583  0.000078  0.087478      2.000000
  0.065101  0.000092  0.097174      1.000000
  0.000067  0.032583  0.087478      2.000000
  0.032585  0.032597  0.097174      2.000000
  0.065104  0.032610  0.106870      2.000000
 -0.032452  0.032569  0.077782      2.000000
  0.000069  0.065101  0.097174      1.000000
  0.032588  0.065115  0.106870      2.000000
  0.065106  0.065129  0.116566      1.000000

 Subroutine IBZKPT_HF returns following result:

 Found     64 k-points in 1st BZ
 the following     64 k-points will be used (e.g. in the exchange kernel)
 Following reciprocal coordinates:   # in IRBZ
  0.000000  0.000000  0.000000    0.01562500   1 t-inv F
  0.250000  0.000000  0.000000    0.01562500   2 t-inv F
  0.500000  0.000000  0.000000    0.01562500   3 t-inv F
  0.000000  0.250000  0.000000    0.01562500   4 t-inv F
  0.250000  0.250000  0.000000    0.01562500   5 t-inv F
  0.500000  0.250000  0.000000    0.01562500   6 t-inv F
 -0.250000  0.250000 -0.000000    0.01562500   7 t-inv F
  0.000000  0.500000  0.000000    0.01562500   8 t-inv F
  0.250000  0.500000  0.000000    0.01562500   9 t-inv F
  0.500000  0.500000  0.000000    0.01562500  10 t-inv F
  0.000000 -0.000000  0.250000    0.01562500  11 t-inv F
  0.250000  0.000000  0.250000    0.01562500  12 t-inv F
  0.500000  0.000000  0.250000    0.01562500  13 t-inv F
 -0.250000 -0.000000  0.250000    0.01562500  14 t-inv F
 -0.000000  0.250000  0.250000    0.01562500  15 t-inv F
  0.250000  0.250000  0.250000    0.01562500  16 t-inv F
  0.500000  0.250000  0.250000    0.01562500  17 t-inv F
 -0.250000  0.250000  0.250000    0.01562500  18 t-inv F
  0.000000  0.500000  0.250000    0.01562500  19 t-inv F
  0.250000  0.500000  0.250000    0.01562500  20 t-inv F
  0.500000  0.500000  0.250000    0.01562500  21 t-inv F
 -0.250000  0.500000  0.250000    0.01562500  22 t-inv F
 -0.000000 -0.250000  0.250000    0.01562500  23 t-inv F
  0.250000 -0.250000  0.250000    0.01562500  24 t-inv F
  0.500000 -0.250000  0.250000    0.01562500  25 t-inv F
 -0.250000 -0.250000  0.250000    0.01562500  26 t-inv F
  0.000000 -0.000000  0.500000    0.01562500  27 t-inv F
  0.250000 -0.000000  0.500000    0.01562500  28 t-inv F
  0.500000  0.000000  0.500000    0.01562500  29 t-inv F
 -0.000000  0.250000  0.500000    0.01562500  30 t-inv F
  0.250000  0.250000  0.500000    0.01562500  31 t-inv F
  0.500000  0.250000  0.500000    0.01562500  32 t-inv F
 -0.250000  0.250000  0.500000    0.01562500  33 t-inv F
 -0.000000  0.500000  0.500000    0.01562500  34 t-inv F
  0.250000  0.500000  0.500000    0.01562500  35 t-inv F
  0.500000  0.500000  0.500000    0.01562500  36 t-inv F
 -0.250000  0.000000 -0.000000    0.01562500   2 t-inv T
  0.000000 -0.250000 -0.000000    0.01562500   4 t-inv T
 -0.250000 -0.250000 -0.000000    0.01562500   5 t-inv T
 -0.500000 -0.250000 -0.000000    0.01562500   6 t-inv T
  0.250000 -0.250000  0.000000    0.01562500   7 t-inv T
 -0.250000 -0.500000 -0.000000    0.01562500   9 t-inv T
  0.000000  0.000000 -0.250000    0.01562500  11 t-inv T
 -0.250000  0.000000 -0.250000    0.01562500  12 t-inv T
 -0.500000  0.000000 -0.250000    0.01562500  13 t-inv T
  0.250000  0.000000 -0.250000    0.01562500  14 t-inv T
  0.000000 -0.250000 -0.250000    0.01562500  15 t-inv T
 -0.250000 -0.250000 -0.250000    0.01562500  16 t-inv T
 -0.500000 -0.250000 -0.250000    0.01562500  17 t-inv T
  0.250000 -0.250000 -0.250000    0.01562500  18 t-inv T
  0.000000 -0.500000 -0.250000    0.01562500  19 t-inv T
 -0.250000 -0.500000 -0.250000    0.01562500  20 t-inv T
 -0.500000 -0.500000 -0.250000    0.01562500  21 t-inv T
  0.250000 -0.500000 -0.250000    0.01562500  22 t-inv T
  0.000000  0.250000 -0.250000    0.01562500  23 t-inv T
 -0.250000  0.250000 -0.250000    0.01562500  24 t-inv T
 -0.500000  0.250000 -0.250000    0.01562500  25 t-inv T
  0.250000  0.250000 -0.250000    0.01562500  26 t-inv T
 -0.250000  0.000000 -0.500000    0.01562500  28 t-inv T
  0.000000 -0.250000 -0.500000    0.01562500  30 t-inv T
 -0.250000 -0.250000 -0.500000    0.01562500  31 t-inv T
 -0.500000 -0.250000 -0.500000    0.01562500  32 t-inv T
  0.250000 -0.250000 -0.500000    0.01562500  33 t-inv T
 -0.250000 -0.500000 -0.500000    0.01562500  35 t-inv T

 SYSTEM =  unknown system
 POSCAR =  # Compound: Li8O4S8Fe8. Old comment: Fe2

 Startparameter for this run:
   NWRITE =      1    write-flag & timer
   PREC   = accura    normal or accurate (medium, high low for compatibility)
   ISTART =      0    job   : 0-new  1-cont  2-samecut
   ICHARG =      2    charge: 1-file 2-atom 10-const
[...]
      5.56685      7.60898     -0.01071         0.097178      0.026081     -0.000466
      1.72264      3.76342     -0.00437         0.097131      0.026001     -0.000200
      5.56743      4.32582     -0.00812        -0.097209     -0.025863      0.000424
      2.00950      0.20478      6.42624        -0.026651     -0.096874      0.000055
      5.29265      0.20535      6.42365         0.026420      0.096861     -0.000029
      1.44705      4.04960      6.42365         0.026592      0.097014     -0.000301
     -1.83610      4.04903      6.42624        -0.026581     -0.096927      0.000319
      1.72892     -1.71771      6.42819         0.000377      0.000363     -0.000088
      7.49062      0.20042     -0.00633        -0.000021     -0.000306      0.000029
      3.64503      4.04468     -0.00633        -0.000172     -0.000363      0.000104
      5.57313      2.12785      6.42185         0.000118      0.000206     -0.000031
      1.72448      2.12354      1.94381        -0.001505     -0.001697      0.017164
      5.56939      2.12420      1.94060        -0.001674      0.001453      0.017039
      1.72379      5.96845      1.94059         0.001713     -0.001278      0.016897
      5.56868      5.96910      1.93747         0.001331      0.001560      0.017110
     -0.19553      0.20286      4.48127         0.000738      0.001215     -0.017214
      3.64938      0.20352      4.47806         0.001040     -0.000998     -0.017013
     -0.19621      4.04777      4.47806        -0.000923      0.001026     -0.016924
      3.64868      4.04841      4.47493        -0.000879     -0.001221     -0.017062
     -0.19775      0.20106      2.04387         0.000223      0.000088      0.271519
      3.64705      0.20170      2.04066         0.000100      0.000107      0.271559
     -0.19854      4.04595      2.04066         0.000320      0.000152      0.271587
      3.64646      4.04662      2.03754         0.000396      0.000203      0.271427
      1.72630      2.12586      4.38121        -0.000336     -0.000177     -0.271734
      5.57118      2.12642      4.37799         0.000021     -0.000170     -0.271322
      1.72559      5.97067      4.37799        -0.000351     -0.000251     -0.271334
      5.57050      5.97142      4.37487        -0.000463     -0.000293     -0.271687
    total drift:                                0.002704     -0.002684      0.000026

  FREE ENERGIE OF THE ION-ELECTRON SYSTEM (eV)
  free  energy   TOTEN  =      -144.23388608 eV

  energy  without entropy=     -144.23388608  energy(sigma->0) =     -144.23388608

 Linear response reoptimize wavefunctions
 Linear response G [H, r] |phi>, progress :
  Direction:   1

----------------------------------------- Iteration    1(   1)  ---------------------------------------

  free energy    TOTEN  =      -632.26205260 eV

[...]

 Linear response G [H, r] |phi>, progress :
  Direction:   2

[...]

 Linear response G [H, r] |phi>, progress :
  Direction:   3

[...]

  free energy    TOTEN  =      -897.46441625 eV

[...]

 Linear response to external field (no local field effect), progress :
  Direction:   1

[...]

 Free energy of the ion-electron system (eV)
  -Hartree energ DENC   =         0.00000000
  -V(xc)+E(xc)   XCENC  =         0.00000000
  PAW double counting   =         0.00000000        0.00000000
  entropy T*S    EENTRO =         0.00000000
  eigenvalues    EBANDS =        -4.11042998
  free energy    TOTEN  =        -4.11042998 eV

  energy without entropy =       -4.11042998

[...]

 change of polarisation eV/A/(eV/A) component  2 :     0.069    13.233    -0.002
 dielectric tensor                  component  2 :     0.033     7.299    -0.001

 Linear response to external field (no local field effect), progress :
  Direction:   3

[...]

 HEAD OF MICROSCOPIC STATIC DIELECTRIC TENSOR (INDEPENDENT PARTICLE, excluding Hartree and local field effects)
           7.299630     0.032611    -0.001111
           0.032586     7.299478    -0.000957
          -0.001112    -0.000957     6.349016

 Linear response to external field, progress :
  Direction:   1

[...]

 PIEZOELECTRIC TENSOR FIELD DIRECTION 1  (e Angst)
    -0.00447 -0.00977  0.00158           ( -0.00053  0.00021 -0.00003)
    -0.01001  0.00056 -0.00815           (  0.00021 -0.00065  0.00009)
     0.00136 -0.00831 -0.00086           ( -0.00003  0.00009 -0.00025)

 PIEZOELECTRIC TENSOR FIELD DIRECTION 1  (C/m^2)
    -0.00019 -0.00041  0.00007
    -0.00042  0.00002 -0.00034
     0.00006 -0.00035 -0.00004

      POSITION         DIRECTION 1           BORN EFFECTIVE CHARGE    (rigid.aug.   ionic)
      1.72322      0.48027     -0.00178     0.93151  0.00181  0.00036 ( -0.94034  3.00000)
      5.56685      7.60898     -0.01071     0.93126  0.00230  0.00041 ( -0.94034  3.00000)
      1.72264      3.76342     -0.00437     0.93136  0.00245  0.00029 ( -0.94034  3.00000)
      5.56743      4.32582     -0.00812     0.93142  0.00184  0.00043 ( -0.94034  3.00000)
      2.00950      0.20478      6.42624     1.19887  0.00425  0.00043 ( -0.94034  3.00000)
      5.29265      0.20535      6.42365     1.19852  0.00423  0.00031 ( -0.94034  3.00000)
      1.44705      4.04960      6.42365     1.19855  0.00412 -0.00010 ( -0.94034  3.00000)
     -1.83610      4.04903      6.42624     1.19902  0.00393  0.00000 ( -0.94034  3.00000)
      1.72892     -1.71771      6.42819    -2.16276  0.08076 -0.00130 ( -0.64059  6.00000)
      7.49062      0.20042     -0.00633    -2.00605 -0.10081 -0.00097 ( -0.64059  6.00000)
      3.64503      4.04468     -0.00633    -2.00615 -0.09990 -0.00077 ( -0.64059  6.00000)
      5.57313      2.12785      6.42185    -2.16273  0.08085 -0.00130 ( -0.64059  6.00000)
      1.72448      2.12354      1.94381    -2.70596 -0.01354  0.00139 (  0.81812  6.00000)
      5.56939      2.12420      1.94060    -2.83892  0.00494  0.00161 (  0.81812  6.00000)
      1.72379      5.96845      1.94059    -2.83853  0.00516  0.00011 (  0.81812  6.00000)
      5.56868      5.96910      1.93747    -2.70580 -0.01389  0.00020 (  0.81812  6.00000)
     -0.19553      0.20286      4.48127    -2.70619 -0.01516  0.00135 (  0.81812  6.00000)
      3.64938      0.20352      4.47806    -2.83917  0.00386  0.00151 (  0.81812  6.00000)
     -0.19621      4.04777      4.47806    -2.83861  0.00392  0.00028 (  0.81812  6.00000)
      3.64868      4.04841      4.47493    -2.70596 -0.01549  0.00040 (  0.81812  6.00000)
     -0.19775      0.20106      2.04387     2.81642  0.03619 -0.00059 ( -8.50146 14.00000)
      3.64705      0.20170      2.04066     2.67367 -0.02144  0.00022 ( -8.50146 14.00000)
     -0.19854      4.04595      2.04066     2.67367 -0.02030 -0.00002 ( -8.50146 14.00000)
      3.64646      4.04662      2.03754     2.81686  0.02686 -0.00101 ( -8.50146 14.00000)
      1.72630      2.12586      4.38121     2.81628  0.03799 -0.00043 ( -8.50146 14.00000)
      5.57118      2.12642      4.37799     2.67371 -0.01867 -0.00033 ( -8.50146 14.00000)
      1.72559      5.97067      4.37799     2.67382 -0.01726 -0.00096 ( -8.50146 14.00000)
      5.57050      5.97142      4.37487     2.81657  0.03150 -0.00089 ( -8.50146 14.00000)
    total drift (improves with k-points):  -0.03533  0.00049  0.00062

[...]

 Linear response to external field, progress :
  Direction:   3

[...]

----------------------------------------- Iteration    3(  58)  ---------------------------------------

 Broyden mixing:
  rms(total) = 0.31657E-04    rms(broyden)= 0.31508E-04
  rms(prec ) = 0.36266E-04
  weight for this iteration     100.00

 eigenvalues of (default mixing * dielectric matrix)
  average eigenvalue GAMMA=   7.2936
 82.2027 47.4760 37.6781 24.3189 21.0924 17.6722 18.2984  8.2135  7.2789  2.8070
  2.4399  2.4399  2.4358  2.4358  2.0069  1.6590  1.3350  1.3350  1.2914  0.9379
  0.9379  0.8907  0.8907  0.3958  0.3958  0.4144  0.7662  0.7662  0.7230  0.7230
  0.6502  0.6502  0.5375  0.6704  0.6704  0.5759  0.6063  0.6063  0.6063  0.6063
  0.6012

 Free energy of the ion-electron system (eV)
  -Hartree energ DENC   =        -0.57367995
  -V(xc)+E(xc)   XCENC  =         0.04265996
  PAW double counting   =         2.85488994       -2.84270876
  entropy T*S    EENTRO =         0.00000000
  eigenvalues    EBANDS =        -5.04946639
  free energy    TOTEN  =        -5.56830520 eV

  energy without entropy =       -5.56830520

------------------------ aborting loop because EDIFF is reached ----------------------------------------

 change of polarisation eV/A/(eV/A) component  3 :    -0.003    -0.002    10.381
 dielectric tensor                  component  3 :    -0.001    -0.001     5.942

 PIEZOELECTRIC TENSOR FIELD DIRECTION 3  (e Angst)
    -0.00077 -0.00672  0.00164           (  0.00005  0.00031  0.00015)
    -0.00685 -0.00077  0.00049           (  0.00031  0.00008  0.00001)
     0.00124  0.00050  0.00000           (  0.00015  0.00001  0.00009)

 PIEZOELECTRIC TENSOR FIELD DIRECTION 3  (C/m^2)
    -0.00003 -0.00028  0.00007
    -0.00029 -0.00003  0.00002
     0.00005  0.00002  0.00000

      POSITION         DIRECTION 3           BORN EFFECTIVE CHARGE    (rigid.aug.   ionic)
      1.72322      0.48027     -0.00178     0.00056  0.00018  1.43392 ( -0.94034  3.00000)
      5.56685      7.60898     -0.01071     0.00025  0.00018  1.43413 ( -0.94034  3.00000)
      1.72264      3.76342     -0.00437     0.00025  0.00027  1.43423 ( -0.94034  3.00000)
      5.56743      4.32582     -0.00812     0.00059  0.00010  1.43389 ( -0.94034  3.00000)
      2.00950      0.20478      6.42624     0.00028  0.00063  1.43398 ( -0.94034  3.00000)
      5.29265      0.20535      6.42365     0.00019  0.00029  1.43386 ( -0.94034  3.00000)
      1.44705      4.04960      6.42365     0.00012  0.00030  1.43397 ( -0.94034  3.00000)
     -1.83610      4.04903      6.42624     0.00018  0.00064  1.43418 ( -0.94034  3.00000)
      1.72892     -1.71771      6.42819    -0.00118 -0.00148 -3.63370 ( -0.64059  6.00000)
      7.49062      0.20042     -0.00633    -0.00134 -0.00116 -3.63363 ( -0.64059  6.00000)
      3.64503      4.04468     -0.00633    -0.00134 -0.00104 -3.63359 ( -0.64059  6.00000)
      5.57313      2.12785      6.42185    -0.00103 -0.00148 -3.63370 ( -0.64059  6.00000)
      1.72448      2.12354      1.94381     0.00091  0.00102 -1.82685 (  0.81812  6.00000)
      5.56939      2.12420      1.94060     0.00037  0.00055 -1.82711 (  0.81812  6.00000)
      1.72379      5.96845      1.94059     0.00063  0.00055 -1.82676 (  0.81812  6.00000)
      5.56868      5.96910      1.93747     0.00102  0.00117 -1.82677 (  0.81812  6.00000)
     -0.19553      0.20286      4.48127     0.00064  0.00095 -1.82668 (  0.81812  6.00000)
      3.64938      0.20352      4.47806     0.00127  0.00068 -1.82694 (  0.81812  6.00000)
     -0.19621      4.04777      4.47806     0.00148  0.00067 -1.82647 (  0.81812  6.00000)
      3.64868      4.04841      4.47493     0.00074  0.00107 -1.82660 (  0.81812  6.00000)
     -0.19775      0.20106      2.04387    -0.00067 -0.00141  2.20960 ( -8.50146 14.00000)
      3.64705      0.20170      2.04066    -0.00016 -0.00020  2.20944 ( -8.50146 14.00000)
     -0.19854      4.04595      2.04066     0.00027 -0.00036  2.20953 ( -8.50146 14.00000)
      3.64646      4.04662      2.03754    -0.00069 -0.00045  2.20959 ( -8.50146 14.00000)
      1.72630      2.12586      4.38121    -0.00051 -0.00053  2.20946 ( -8.50146 14.00000)
      5.57118      2.12642      4.37799    -0.00114 -0.00038  2.20926 ( -8.50146 14.00000)
      1.72559      5.97067      4.37799    -0.00046 -0.00060  2.20934 ( -8.50146 14.00000)
      5.57050      5.97142      4.37487    -0.00039  0.00073  2.20950 ( -8.50146 14.00000)
    total drift (improves with k-points):   0.00086  0.00090 -0.00091

 MACROSCOPIC STATIC DIELECTRIC TENSOR (including local field effects in DFT)
           6.990847     0.027996    -0.001196
           0.027954     6.990773    -0.001036
          -0.001195    -0.001031     5.941947

 MACROSCOPIC STATIC DIELECTRIC TENSOR (including local field effects in DFT)
           6.990847     0.027996    -0.001196
           0.027954     6.990773    -0.001036
          -0.001195    -0.001031     5.941947

 PIEZOELECTRIC TENSOR  for field in x, y, z        (e  Angst)
          XX          YY          ZZ          XY          YZ          ZX
  x    -0.00447     0.00056    -0.00086    -0.01001    -0.00831     0.00158
  y    -0.00403     0.00307     0.00387     0.01729    -0.00012    -0.00635
  z    -0.00077    -0.00077     0.00000    -0.00685     0.00050     0.00164

 PIEZOELECTRIC TENSOR  for field in x, y, z        (C/m^2)
          XX          YY          ZZ          XY          YZ          ZX
  x    -0.00019     0.00002    -0.00004    -0.00042    -0.00035     0.00007
  y    -0.00017     0.00013     0.00016     0.00073    -0.00001    -0.00027
  z    -0.00003    -0.00003     0.00000    -0.00029     0.00002     0.00007

 BORN EFFECTIVE CHARGES (in e, cummulative output)
 ion    1
    1     0.93277     0.00179     0.00034
    2     0.00399     1.19995     0.00023
    3     0.00053     0.00015     1.43396
 ion    2
    1     0.93253     0.00229     0.00038
    2     0.00396     1.20015     0.00001
    3     0.00022     0.00015     1.43417
 ion    3
    1     0.93263     0.00243     0.00027
    2     0.00427     1.20022     0.00037
    3     0.00022     0.00024     1.43426
 ion    4
    1     0.93268     0.00182     0.00041
    2     0.00397     1.19997    -0.00013
    3     0.00056     0.00007     1.43392
 ion    5
    1     1.20014     0.00423     0.00041
    2     0.00233     0.93242     0.00044
    3     0.00025     0.00060     1.43401
 ion    6
    1     1.19978     0.00421     0.00029
    2     0.00206     0.93314     0.00039
    3     0.00016     0.00026     1.43389
 ion    7
    1     1.19981     0.00410    -0.00012
    2     0.00215     0.93315     0.00032
    3     0.00009     0.00027     1.43400
 ion    8
    1     1.20028     0.00391    -0.00002
    2     0.00225     0.93243     0.00038
    3     0.00015     0.00061     1.43422
 ion    9
    1    -2.16149     0.08074    -0.00132
    2    -0.10126    -2.00465    -0.00132
    3    -0.00121    -0.00151    -3.63367
 ion   10
    1    -2.00479    -0.10083    -0.00100
    2     0.08128    -2.16118    -0.00133
    3    -0.00137    -0.00120    -3.63359
 ion   11
    1    -2.00489    -0.09992    -0.00079
    2     0.08208    -2.16113    -0.00128
    3    -0.00137    -0.00107    -3.63356
 ion   12
    1    -2.16147     0.08083    -0.00132
    2    -0.10087    -2.00472    -0.00136
    3    -0.00106    -0.00151    -3.63367
 ion   13
    1    -2.70470    -0.01356     0.00136
    2     0.00503    -2.83767     0.00141
    3     0.00088     0.00099    -1.82681
 ion   14
    1    -2.83766     0.00492     0.00159
    2    -0.01397    -2.70533     0.00032
    3     0.00034     0.00052    -1.82708
 ion   15
    1    -2.83727     0.00514     0.00008
    2    -0.01395    -2.70527     0.00082
    3     0.00060     0.00052    -1.82673
 ion   16
    1    -2.70454    -0.01391     0.00018
    2     0.00541    -2.83756     0.00034
    3     0.00099     0.00114    -1.82674
 ion   17
    1    -2.70493    -0.01518     0.00133
    2     0.00379    -2.83770     0.00151
    3     0.00061     0.00091    -1.82665
 ion   18
    1    -2.83791     0.00384     0.00149
    2    -0.01562    -2.70526     0.00034
    3     0.00124     0.00064    -1.82691
 ion   19
    1    -2.83735     0.00390     0.00026
    2    -0.01550    -2.70508     0.00089
    3     0.00144     0.00064    -1.82644
 ion   20
    1    -2.70469    -0.01550     0.00038
    2     0.00430    -2.83766     0.00057
    3     0.00071     0.00104    -1.82657
 ion   21
    1     2.81768     0.03617    -0.00062
    2    -0.01789     2.67521    -0.00085
    3    -0.00071    -0.00144     2.20963
 ion   22
    1     2.67493    -0.02146     0.00020
    2     0.03348     2.81802    -0.00043
    3    -0.00019    -0.00023     2.20948
 ion   23
    1     2.67493    -0.02032    -0.00004
    2     0.03216     2.81815    -0.00026
    3     0.00024    -0.00040     2.20956
 ion   24
    1     2.81813     0.02684    -0.00103
    2    -0.02679     2.67476    -0.00064
    3    -0.00072    -0.00048     2.20962
 ion   25
    1     2.81754     0.03797    -0.00045
    2    -0.01598     2.67524     0.00001
    3    -0.00054    -0.00056     2.20949
 ion   26
    1     2.67497    -0.01869    -0.00036
    2     0.03568     2.81768    -0.00066
    3    -0.00117    -0.00041     2.20929
 ion   27
    1     2.67508    -0.01727    -0.00098
    2     0.03549     2.81779    -0.00032
    3    -0.00049    -0.00063     2.20938
 ion   28
    1     2.81783     0.03149    -0.00092
    2    -0.02183     2.67493     0.00022
    3    -0.00042     0.00070     2.20954