 vasp.6.2.0 18Jan21 (build Feb  9 2021 11:43:09) complex
 executed on       CrayXC_GCC_OMP date 2021.05.05  00:35:24

 INCAR:
   AEXX = 0.25
   ALGO = all
   EDIFF = 9e-06
   ENCUT = 520
   GGA = pe
   HFSCREEN = 0.207
   ISIF = 3
   ISMEAR = 0
   ISPIN = 2
   KPAR = 52
   LASPH = .TRUE.
   LHFCALC = .TRUE.
   LMAXFOCK = 4
   LORBIT = 11
   LREAL = .FALSE.
   LVHAR = .TRUE.
   LWAVE = .TRUE.
   MAGMOM = 0.6 0.6 0.6 0.6 0.6 0.6 5 5 5
   NCORE = 1
   NEDOS = 2000
   NELM = 200
   NELMIN = 4
   NWRITE = 1
   PREC = accurate
   PRECFOCK = fast
   SIGMA = 0.05
   SYMPREC = 1e-07
   TIME = 0.3

 POTCAR:    PAW_PBE Li_sv 10Sep2004
 POTCAR:    PAW_PBE O 08Apr2002
 POTCAR:    PAW_PBE S 06Sep2000
 POTCAR:    PAW_PBE Fe_pv 02Aug2007
 POTCAR:    PAW_PBE Li_sv 10Sep2004

 POTCAR:    PAW_PBE O 08Apr2002

 POTCAR:    PAW_PBE S 06Sep2000

 POTCAR:    PAW_PBE Fe_pv 02Aug2007

  PAW_PBE Li_sv 10Sep2004               :
  PAW_PBE O 08Apr2002                   :
  PAW_PBE S 06Sep2000                   :
  PAW_PBE Fe_pv 02Aug2007               :

 POSCAR: # Compound: Li2O2S2Fe3. Old comment: Fe3
  positions in direct lattice
 exchange correlation table for  LEXCH =        8
   RHO(1)=    0.500       N(1)  =     2000
   RHO(2)=  100.500       N(2)  =     4000

 ion  position               nearest neighbor table
   1  0.318  0.538  0.953-   4 1.99   3 2.01   6 2.53   6 2.53
   2  0.318  0.953  0.538-   3 1.99   4 2.01   6 2.53   6 2.53
   3  0.318  0.239  0.750-   8 1.98   8 1.98   2 1.99   9 1.99   1 2.01
   4  0.318  0.750  0.239-   7 1.98   7 1.98   1 1.99   9 1.99   2 2.01
   5  0.819  0.236  0.236-   8 2.48   7 2.48   9 2.48   9 2.48
   6  0.818  0.750  0.749-   1 2.53   7 2.53   8 2.53   2 2.53   1 2.53   2 2.53
   7  0.818  0.672  0.306-   4 1.98   4 1.98   5 2.48   6 2.53
   8  0.818  0.306  0.672-   3 1.98   3 1.98   5 2.48   6 2.53
   9  0.319  0.033  0.033-   3 1.99   4 1.99   5 2.48   5 2.48

  LATTYP: Found a triclinic cell.
 ALAT       =     9.4499950416
 B/A-ratio  =     0.4013779770
 C/A-ratio  =     1.3447276920
 COS(alpha) =     0.0000030385
 COS(beta)  =     0.5344964700
 COS(gamma) =     0.8027744560

  Lattice vectors:

 A1 = (  -7.5861206500,   0.1625783500,  -5.6326501800)
 A2 = (  -3.7930198900,  -0.0001074800,  -0.0000663900)
 A3 = (  -0.0000110500,   5.9599563600, -11.2233594600)

Analysis of symmetry for initial positions (statically):
 Subroutine PRICEL returns:
 Original cell was already a primitive cell.

 Routine SETGRP: Setting up the symmetry group for a
 triclinic supercell.

 Subroutine GETGRP returns: Found  1 space group operations
 (whereof  1 operations were pure point group operations)
 out of a pool of  2 trial point group operations.

The static configuration has the point symmetry C_1 .

Analysis of symmetry for dynamics (positions and initial velocities):
 Subroutine PRICEL returns:
 Original cell was already a primitive cell.

[...]

The dynamic configuration has the point symmetry C_1 .

Analysis of structural, dynamic, and magnetic symmetry:
 Subroutine PRICEL returns:
 Original cell was already a primitive cell.

 Routine SETGRP: Setting up the symmetry group for a
 triclinic supercell.

 Subroutine GETGRP returns: Found  1 space group operations
 (whereof  1 operations were pure point group operations)
 out of a pool of  2 trial point group operations.

The overall configuration has the point symmetry C_1 .

 Subroutine INISYM returns: Found  1 space group operations
 (whereof  1 operations are pure point group operations),
 and found     1 'primitive' translations

                                     Primitive cell

  volume of cell :     120.3998

  direct lattice vectors                    reciprocal lattice vectors
     3.793019890  0.000107480  0.000066390     0.263642172 -0.000007022 -0.000003988
     0.000150690  5.634369740  0.041675340    -0.000005118  0.177444206  0.005128565
     0.000080870 -0.162793310  5.632517400    -0.000003070 -0.001312920  0.177502561

  length of vectors
     3.793019892  5.634523868  5.634869469     0.263642172  0.177518305  0.177507417

  position of ions in fractional coordinates (direct lattice)
     0.317766510  0.538195410  0.953024140
     0.317766830  0.953227690  0.538003830
     0.318050730  0.239491390  0.750313880
     0.318067700  0.750351610  0.239322300
     0.818612990  0.236213900  0.236247720
     0.818013780  0.749527230  0.749354690
     0.818181550  0.672346510  0.305878840
     0.818173690  0.305989570  0.672269980
     0.318759920  0.033063240  0.032959440

  ion indices of the primitive-cell ions
   primitive index   ion index
                 1           1
                 2           2
                 3           3
                 4           4
                 5           5
                 6           6
                 7           7
                 8           8
                 9           9

 KPOINTS: # No comment

Automatic generation of k-mesh.
 Grid dimensions read from file:
 generate k-points for:    6    4    4

 Generating k-lattice:

  Cartesian coordinates                     Fractional coordinates (reciprocal lattice)
     0.043940362 -0.000001170 -0.000000665     0.166666667  0.000000000 -0.000000000
    -0.000001279  0.044361052  0.001282141     0.000000000  0.250000000  0.000000000
    -0.000000767 -0.000328230  0.044375640     0.000000000 -0.000000000  0.250000000

  Length of vectors
     0.043940362  0.044379576  0.044376854

  Shift w.r.t. Gamma in fractional coordinates (k-lattice)
     0.000000000  0.000000000  0.000000000

 Subroutine IBZKPT returns following result:

 Found     52 irreducible k-points:

 Following reciprocal coordinates:
            Coordinates               Weight
  0.000000  0.000000  0.000000      1.000000
  0.166667  0.000000  0.000000      2.000000
  0.333333  0.000000  0.000000      2.000000
  0.500000  0.000000  0.000000      1.000000
  0.000000  0.250000  0.000000      2.000000
  0.166667  0.250000  0.000000      2.000000
  0.333333  0.250000  0.000000      2.000000
  0.500000  0.250000  0.000000      2.000000
 -0.333333  0.250000  0.000000      2.000000
 -0.166667  0.250000  0.000000      2.000000
  0.000000  0.500000  0.000000      1.000000
  0.166667  0.500000  0.000000      2.000000
  0.333333  0.500000  0.000000      2.000000
  0.500000  0.500000  0.000000      1.000000
  0.000000  0.000000  0.250000      2.000000
  0.166667  0.000000  0.250000      2.000000
  0.333333  0.000000  0.250000      2.000000
  0.500000  0.000000  0.250000      2.000000
 -0.333333  0.000000  0.250000      2.000000
 -0.166667  0.000000  0.250000      2.000000
  0.000000  0.250000  0.250000      2.000000
  0.166667  0.250000  0.250000      2.000000
  0.333333  0.250000  0.250000      2.000000
  0.500000  0.250000  0.250000      2.000000
 -0.333333  0.250000  0.250000      2.000000
 -0.166667  0.250000  0.250000      2.000000
  0.000000  0.500000  0.250000      2.000000
  0.166667  0.500000  0.250000      2.000000
  0.333333  0.500000  0.250000      2.000000
  0.500000  0.500000  0.250000      2.000000
 -0.333333  0.500000  0.250000      2.000000
 -0.166667  0.500000  0.250000      2.000000
  0.000000 -0.250000  0.250000      2.000000
  0.166667 -0.250000  0.250000      2.000000
  0.333333 -0.250000  0.250000      2.000000
  0.500000 -0.250000  0.250000      2.000000
 -0.333333 -0.250000  0.250000      2.000000
 -0.166667 -0.250000  0.250000      2.000000
  0.000000  0.000000  0.500000      1.000000
  0.166667  0.000000  0.500000      2.000000
  0.333333  0.000000  0.500000      2.000000
  0.500000  0.000000  0.500000      1.000000
  0.000000  0.250000  0.500000      2.000000
  0.166667  0.250000  0.500000      2.000000
  0.333333  0.250000  0.500000      2.000000
  0.500000  0.250000  0.500000      2.000000
 -0.333333  0.250000  0.500000      2.000000
 -0.166667  0.250000  0.500000      2.000000
  0.000000  0.500000  0.500000      1.000000
  0.166667  0.500000  0.500000      2.000000
  0.333333  0.500000  0.500000      2.000000
  0.500000  0.500000  0.500000      1.000000

 Following cartesian coordinates:
            Coordinates               Weight
  0.000000  0.000000  0.000000      1.000000
  0.043940 -0.000001 -0.000001      2.000000
  0.087881 -0.000002 -0.000001      2.000000
  0.131821 -0.000004 -0.000002      1.000000
 -0.000001  0.044361  0.001282      2.000000
  0.043939  0.044360  0.001281      2.000000
  0.087879  0.044359  0.001281      2.000000
  0.131820  0.044358  0.001280      2.000000
 -0.087882  0.044363  0.001283      2.000000
 -0.043942  0.044362  0.001283      2.000000
 -0.000003  0.088722  0.002564      1.000000
  0.043938  0.088721  0.002564      2.000000
  0.087878  0.088720  0.002563      2.000000
  0.131819  0.088719  0.002562      1.000000
 -0.000001 -0.000328  0.044376      2.000000
  0.043940 -0.000329  0.044375      2.000000
  0.087880 -0.000331  0.044374      2.000000
  0.131820 -0.000332  0.044374      2.000000
 -0.087881 -0.000326  0.044377      2.000000
 -0.043941 -0.000327  0.044376      2.000000
 -0.000002  0.044033  0.045658      2.000000
  0.043938  0.044032  0.045657      2.000000
  0.087879  0.044030  0.045656      2.000000
  0.131819  0.044029  0.045656      2.000000
 -0.087883  0.044035  0.045659      2.000000
 -0.043942  0.044034  0.045658      2.000000
 -0.000003  0.088394  0.046940      2.000000
  0.043937  0.088393  0.046939      2.000000
  0.087877  0.088392  0.046939      2.000000
  0.131818  0.088390  0.046938      2.000000
 -0.087884  0.088396  0.046941      2.000000
 -0.043944  0.088395  0.046941      2.000000
  0.000001 -0.044689  0.043093      2.000000
  0.043941 -0.044690  0.043093      2.000000
  0.087881 -0.044692  0.043092      2.000000
  0.131822 -0.044693  0.043092      2.000000
 -0.087880 -0.044687  0.043095      2.000000
 -0.043940 -0.044688  0.043094      2.000000
 -0.000002 -0.000656  0.088751      1.000000
  0.043939 -0.000658  0.088751      2.000000
  0.087879 -0.000659  0.088750      2.000000
  0.131820 -0.000660  0.088749      1.000000
 -0.000003  0.043705  0.090033      2.000000
  0.043938  0.043703  0.090033      2.000000
  0.087878  0.043702  0.090032      2.000000
  0.131818  0.043701  0.090031      2.000000
 -0.087884  0.043707  0.090035      2.000000
 -0.043943  0.043706  0.090034      2.000000
 -0.000004  0.088066  0.091316      1.000000
  0.043936  0.088064  0.091315      2.000000
  0.087877  0.088063  0.091314      2.000000
  0.131817  0.088062  0.091314      1.000000

 Subroutine IBZKPT_HF returns following result:

 Found     96 k-points in 1st BZ
 the following     96 k-points will be used (e.g. in the exchange kernel)
 Following reciprocal coordinates:   # in IRBZ
  0.000000  0.000000  0.000000    0.01041667   1 t-inv F
  0.166667  0.000000  0.000000    0.01041667   2 t-inv F
  0.333333  0.000000  0.000000    0.01041667   3 t-inv F
  0.500000  0.000000  0.000000    0.01041667   4 t-inv F
  0.000000  0.250000  0.000000    0.01041667   5 t-inv F
  0.166667  0.250000  0.000000    0.01041667   6 t-inv F
  0.333333  0.250000  0.000000    0.01041667   7 t-inv F
  0.500000  0.250000  0.000000    0.01041667   8 t-inv F
 -0.333333  0.250000  0.000000    0.01041667   9 t-inv F
[...]
 k-point  30 :   0.5000 0.5000 0.2500  plane waves:    3246
 k-point  31 :  -0.3333 0.5000 0.2500  plane waves:    3242
 k-point  32 :  -0.1667 0.5000 0.2500  plane waves:    3237
 k-point  33 :   0.0000-0.2500 0.2500  plane waves:    3247
 k-point  34 :   0.1667-0.2500 0.2500  plane waves:    3241
 k-point  35 :   0.3333-0.2500 0.2500  plane waves:    3252
 k-point  36 :   0.5000-0.2500 0.2500  plane waves:    3252
 k-point  37 :  -0.3333-0.2500 0.2500  plane waves:    3252
 k-point  38 :  -0.1667-0.2500 0.2500  plane waves:    3241
 k-point  39 :   0.0000 0.0000 0.5000  plane waves:    3226
 k-point  40 :   0.1667 0.0000 0.5000  plane waves:    3238
 k-point  41 :   0.3333 0.0000 0.5000  plane waves:    3252
 k-point  42 :   0.5000 0.0000 0.5000  plane waves:    3268
 k-point  43 :   0.0000 0.2500 0.5000  plane waves:    3222
 k-point  44 :   0.1667 0.2500 0.5000  plane waves:    3237
 k-point  45 :   0.3333 0.2500 0.5000  plane waves:    3243
 k-point  46 :   0.5000 0.2500 0.5000  plane waves:    3246
 k-point  47 :  -0.3333 0.2500 0.5000  plane waves:    3243
 k-point  48 :  -0.1667 0.2500 0.5000  plane waves:    3237
 k-point  49 :   0.0000 0.5000 0.5000  plane waves:    3184
 k-point  50 :   0.1667 0.5000 0.5000  plane waves:    3224
 k-point  51 :   0.3333 0.5000 0.5000  plane waves:    3232
 k-point  52 :   0.5000 0.5000 0.5000  plane waves:    3252

 maximum and minimum number of plane-waves per node :      3268     3184

 maximum number of plane-waves:      3268
 maximum index in each direction:
   IXMAX=    7   IYMAX=   10   IZMAX=   10
   IXMIN=   -7   IYMIN=  -10   IZMIN=  -10

 serial   3D FFT for wavefunctions
 parallel 3D FFT for charge:
    minimum data exchange during FFTs selected (reduces bandwidth)

 FFT grid for exact exchange (Hartree Fock)
  NGX = 16; NGY = 24; NGZ = 24

 Radii for the augmentation spheres in the non-local exchange
 for species   1 augmentation radius   0.956 (default was   0.708)
       energy cutoff for augmentation   2080.0
 for species   2 augmentation radius   0.974 (default was   0.722)
       energy cutoff for augmentation   2080.0
 for species   3 augmentation radius   1.309 (default was   0.970)
       energy cutoff for augmentation   2080.0
 for species   4 augmentation radius   1.283 (default was   0.950)
       energy cutoff for augmentation   2080.0
 Maximum index for augmentation-charges in exchange          731
  SETUP_FOCK is finished

 Broyden mixing: mesh for mixing (old mesh)
   NGX = 15   NGY = 21   NGZ = 21
  (NGX  = 56   NGY  = 84   NGZ  = 84)
  gives a total of   6615 points

 charge density for first step will be calculated from the start-wavefunctions

 Maximum index for augmentation-charges         1569 (set IRDMAX)

 initial charge from wavefunction
 First call to EWALD:  gamma=   0.359
 Maximum number of real-space cells 3x 2x 2
 Maximum number of reciprocal cells 2x 3x 3

--------------------------------------- Iteration      1(   1)  ---------------------------------------

 eigenvalue-minimisations  :     0
 total energy-change (2. order) :-0.7550943E+02  (-0.5690783E-05)
 number of electron      71.9999964 magnetization      11.9999989
 augmentation part       27.1011345 magnetization       8.0484952

 Free energy of the ion-electron system (eV)
  alpha Z        PSCENC =       227.58723913
  Ewald energy   TEWEN  =     -5499.96887387
  -Hartree energ DENC   =     -2976.82942513
  -exchange      EXHF   =       212.99292567
  -V(xc)+E(xc)   XCENC  =       244.04059400
  PAW double counting   =      9330.82710797    -9598.27224656
  entropy T*S    EENTRO =        -0.00000000
  eigenvalues    EBANDS =     -1184.65802294
  atomic energy  EATOM  =      9168.77127541
  free energy    TOTEN  =       -75.50942632 eV

  energy without entropy =      -75.50942632  energy(sigma->0) =      -75.50942632
  exchange ACFDT corr.  =        -0.00000000  see jH, gK, PRB 81, 115126

[...]

--------------------------------------- Iteration      1(   4)  ---------------------------------------

 eigenvalue-minimisations  :     0
 total energy-change (2. order) :-0.2585990E-05  (-0.1625562E-05)
 number of electron      71.9999964 magnetization      11.9999989
 augmentation part       27.1011248 magnetization       8.0489316

 Free energy of the ion-electron system (eV)
  alpha Z        PSCENC =       227.58723913
  Ewald energy   TEWEN  =     -5499.96887387
  -Hartree energ DENC   =     -2976.79926080
  -exchange      EXHF   =       212.99277576
  -V(xc)+E(xc)   XCENC  =       244.04007161
  PAW double counting   =      9330.78465960    -9598.22916858
  entropy T*S    EENTRO =        -0.00000000
  eigenvalues    EBANDS =     -1184.68793785
  atomic energy  EATOM  =      9168.77127541
  free energy    TOTEN  =       -75.50944072 eV

  energy without entropy =      -75.50944072  energy(sigma->0) =      -75.50944072
  exchange ACFDT corr.  =        -0.00000000  see jH, gK, PRB 81, 115126

  average scaling for gradient   0.9269

 average (electrostatic) potential at core
  the test charge radii are     0.7079  0.7215  0.9698  0.9500
  (the norm of the test charge is              1.0000)
       1 -53.3508       2 -53.3513       3 -63.7951       4 -63.7948       5 -82.0342
       6 -81.9682       7 -71.4800       8 -71.4801       9 -71.1564

 E-fermi :   5.0572     XC(G=0):  -8.6541     alpha+bet :-12.0990

 Fermi energy:         5.0571866627

 spin component 1

 k-point     1 :       0.0000    0.0000    0.0000
  band No.  band energies     occupation
      1     -56.1080      1.00000
      2     -56.1065      1.00000
      3     -55.8153      1.00000
      4     -54.8161      1.00000
      5     -54.8145      1.00000
      6     -54.4932      1.00000
      7     -54.4730      1.00000
      8     -54.3234      1.00000
      9     -54.3213      1.00000
     10     -43.5664      1.00000
     11     -43.5642      1.00000
     12     -16.2065      1.00000
     13     -16.0783      1.00000
     14      -9.3643      1.00000
     15      -8.8301      1.00000
     16      -2.7945      1.00000
     17      -2.3065      1.00000
     18      -2.1211      1.00000
     19      -1.9920      1.00000
     20      -1.7118      1.00000
     21      -1.3828      1.00000
     22      -0.7372      1.00000
     23      -0.7026      1.00000
     24      -0.6549      1.00000
     25      -0.3695      1.00000
     26      -0.2993      1.00000
     27      -0.0577      1.00000
     28      -0.0382      1.00000
     29       0.0022      1.00000
     30       0.2749      1.00000
     31       0.5420      1.00000
     32       0.5719      1.00000
     33       0.7881      1.00000
     34       1.2640      1.00000
     35       1.9381      1.00000
     36       2.0186      1.00000
     37       2.3234      1.00000
     38       3.3400      1.00000
     39       3.3960      1.00000
     40       3.5522      1.00000
     41       4.2183      1.00000
     42       4.2847      1.00000
     43       7.5621      0.00000
     44       8.0953      0.00000
     45       9.4979      0.00000
     46      10.5163      0.00000
     47      11.6236      0.00000
     48      12.4891      0.00000
     49      13.2063      0.00000
     50      14.7963      0.00000
     51      14.8327      0.00000
     52      16.3365      0.00000
     53      16.5330      0.00000
     54      16.6620      0.00000
     55      16.9169      0.00000
     56      17.6471      0.00000

[...]

 k-point    52 :       0.5000    0.5000    0.5000
  band No.  band energies     occupation
      1     -56.1103      1.00000
      2     -56.1091      1.00000
      3     -55.8150      1.00000
      4     -54.8164      1.00000
      5     -54.8142      1.00000
      6     -54.4934      1.00000
      7     -54.4730      1.00000
      8     -54.3233      1.00000
      9     -54.3224      1.00000
     10     -43.5651      1.00000
     11     -43.5636      1.00000
     12     -16.0083      1.00000
     13     -15.8196      1.00000
     14      -8.8141      1.00000
     15      -8.6706      1.00000
     16      -3.2565      1.00000
     17      -2.9570      1.00000
     18      -2.5542      1.00000
     19      -2.2511      1.00000
     20      -2.0538      1.00000
     21      -1.6042      1.00000
     22      -1.5016      1.00000
     23      -1.1760      1.00000
     24      -1.1536      1.00000
     25      -0.9445      1.00000
     26      -0.4657      1.00000
     27      -0.2906      1.00000
     28       0.0512      1.00000
     29       0.1030      1.00000
     30       0.4326      1.00000
     31       0.8697      1.00000
     32       0.9298      1.00000
     33       0.9823      1.00000
     34       1.4967      1.00000
     35       1.5547      1.00000
     36       1.9027      1.00000
     37       2.1158      1.00000
     38       3.4871      1.00000
     39       3.5504      1.00000
     40       3.7733      1.00000
     41       4.1012      1.00000
     42       4.2681      1.00000
     43       8.8833      0.00000
     44       9.2910      0.00000
     45       9.4741      0.00000
     46      10.2061      0.00000
     47      11.7585      0.00000
     48      12.6364      0.00000
     49      12.9705      0.00000
     50      13.0242      0.00000
     51      14.4101      0.00000
     52      14.6622      0.00000
     53      15.2146      0.00000
     54      16.3975      0.00000
     55      18.0403      0.00000
     56      18.2008      0.00000
 Fermi energy:         5.0571866627

 spin component 2

[...]

 k-point    52 :       0.5000    0.5000    0.5000
  band No.  band energies     occupation
      1     -49.5230      1.00000
      2     -49.5189      1.00000
      3     -49.4701      1.00000
      4     -49.4497      1.00000
      5     -49.4482      1.00000
      6     -49.4430      1.00000
      7     -49.1643      1.00000
      8     -49.1571      1.00000
      9     -49.1316      1.00000
     10     -43.5715      1.00000
     11     -43.5698      1.00000
     12     -15.5107      1.00000
     13     -15.3282      1.00000
     14      -8.4502      1.00000
     15      -8.3883      1.00000
     16      -2.1480      1.00000
     17      -1.9699      1.00000
     18      -1.4674      1.00000
     19      -0.8316      1.00000
     20      -0.0819      1.00000
     21       0.5540      1.00000
     22       0.8657      1.00000
     23       0.9040      1.00000
     24       1.4863      1.00000
     25       2.0045      1.00000
     26       2.4385      1.00000
     27       2.6387      1.00000
     28       3.4105      1.00000
     29       4.0175      1.00000
     30       4.1215      1.00000
     31       7.3244      0.00000
     32       7.5025      0.00000
     33       7.8113      0.00000
     34       8.2098      0.00000
     35       8.3741      0.00000
     36       8.5862      0.00000
     37       8.8157      0.00000
     38       9.0165      0.00000
     39       9.0547      0.00000
     40       9.3887      0.00000
     41       9.4531      0.00000
     42       9.6230      0.00000
     43      10.6685      0.00000
     44      10.7736      0.00000
     45      11.0321      0.00000
     46      11.4776      0.00000
     47      12.5250      0.00000
     48      13.4932      0.00000
     49      13.8569      0.00000
     50      14.2952      0.00000
     51      15.3270      0.00000
     52      15.8025      0.00000
     53      15.9100      0.00000
     54      16.9674      0.00000
     55      18.7083      0.00000
     56      18.9823      0.00000

 soft charge-density along one line, spin component           1
         0         1         2         3         4         5         6         7         8         9
 total charge-density along one line

 soft charge-density along one line, spin component           2
         0         1         2         3         4         5         6         7         8         9
 total charge-density along one line

------------------------ aborting loop because EDIFF is reached ----------------------------------------

 total charge

# of ion       s       p       d       tot
    1        2.020   0.064   0.000   2.083
    2        2.020   0.064   0.000   2.083
    3        1.554   3.535   0.000   5.089
    4        1.554   3.535   0.000   5.089
    5        1.306   2.460   0.000   3.766
    6        1.308   2.461   0.000   3.769
    7        0.257   6.252   5.905  12.415
    8        0.257   6.252   5.905  12.415
    9        0.256   6.254   5.920  12.430
tot         10.533  30.876  17.730  59.139

 magnetization (x)

[...]

  FORCE on cell =-STRESS in cart. coord.  units (eV):
  Direction    XX          YY          ZZ          XY          YZ          ZX
  Alpha Z   227.58724   227.58724   227.58724
  Ewald   -1417.13536 -2025.91385 -2056.92616    -0.14370  -427.29565    -0.12505
  Hartree  1300.97655   850.66374   825.16337    -0.06483  -351.30108    -0.05207
  E(xc)    -303.50421  -303.93690  -303.93958    -0.00029    -0.03576    -0.00030
  Local   -1029.10917    -0.23963    55.88243     0.19565   773.59781     0.16252
  n-local   287.06891   285.94787   285.81059     0.00043    -1.99566     0.00073
  augment   385.12680   404.43790   404.71106     0.00868     3.51802     0.00998
  Kinetic   907.71037   928.45285   928.82668     0.00791     5.00905     0.00934
  Fock     -358.59630  -366.97554  -367.08509    -0.00345    -1.42248    -0.00390
  Total       0.12483     0.02366     0.03055     0.00041     0.07425     0.00126
  in kB       1.66112     0.31486     0.40649     0.00545     0.98810     0.01670

 VOLUME and BASIS-vectors are now :
  energy-cutoff  :      520.00
  volume of cell :      120.40
      direct lattice vectors                 reciprocal lattice vectors
     3.793019890  0.000107480  0.000066390     0.263642172 -0.000007022 -0.000003988
     0.000150690  5.634369740  0.041675340    -0.000005118  0.177444206  0.005128565
     0.000080870 -0.162793310  5.632517400    -0.000003070 -0.001312920  0.177502561

  length of vectors
     3.793019892  5.634523868  5.634869469     0.263642172  0.177518305  0.177507417

 FORCES acting on ions:
    Electron-Ion                     Ewald-Force                    Non-Local-Force
   -.546E-01 -.105E+02 0.158E+02   0.525E-01 0.109E+02 -.160E+02   0.307E-02 -.483E+00 0.211E+00
   -.543E-01 0.161E+02 -.987E+01   0.523E-01 -.164E+02 0.104E+02   0.288E-02 0.229E+00 -.475E+00
   -.849E-01 -.498E+02 0.749E+02   0.909E-01 0.520E+02 -.783E+02   0.287E-03 -.190E+01 0.298E+01
   -.571E-01 0.767E+02 -.470E+02   0.614E-01 -.802E+02 0.491E+02   0.116E-02 0.305E+01 -.179E+01
   -.873E-01 -.160E+02 -.165E+02   0.954E-01 0.152E+02 0.157E+02   -.963E-02 0.736E+00 0.764E+00
   -.462E-01 -.163E+02 -.170E+02   0.513E-01 0.173E+02 0.180E+02   -.609E-02 -.904E+00 -.938E+00
   0.244E+00 0.841E+02 -.634E+02   -.234E+00 -.855E+02 0.643E+02   -.144E-01 0.127E+01 -.851E+00
   0.289E+00 -.664E+02 0.816E+02   -.277E+00 0.674E+02 -.830E+02   -.168E-01 -.891E+00 0.124E+01
   -.115E+00 -.172E+02 -.178E+02   0.107E+00 0.193E+02 0.200E+02   0.445E-02 -.197E+01 -.204E+01
   0.342E-01 0.841E+00 0.874E+00   -.626E-14 0.284E-13 0.000E+00   -.350E-01 -.858E+00 -.892E+00

 POSITION                                       TOTAL-FORCE (eV/Angst)
      1.20545      2.87728      5.39038        -0.000470      0.000855     -0.017651
      1.20548      5.28329      3.07006        -0.000540     -0.017696      0.000012
      1.20647      1.22727      4.23616         0.006934      0.016314      0.016168
      1.20657      4.18883      1.37928         0.006242      0.015275      0.016628
      3.10507      1.29254      1.34057        -0.001237     -0.012077     -0.013153
      3.10292      4.10121      4.25204        -0.000401     -0.011741     -0.012214
      3.10350      3.73854      1.75094        -0.004132      0.015482     -0.003326
      3.10345      1.61471      3.79938        -0.004537     -0.004017      0.015888
      1.20907      0.18096      0.18704        -0.001859     -0.002395     -0.002353
    total drift:                               -0.008718      0.010114      0.010677

  FREE ENERGIE OF THE ION-ELECTRON SYSTEM (eV)
  free  energy   TOTEN  =       -75.50944072 eV

  energy  without entropy=      -75.50944072  energy(sigma->0) =      -75.50944072

 writing wavefunctions

 total charge

[...]

 magnetization (x)

# of ion       s       p       d       tot
    1       -0.001  -0.001   0.000  -0.002
    2       -0.001  -0.001   0.000  -0.002
    3        0.012   0.148   0.000   0.160
    4        0.012   0.148   0.000   0.160
    5        0.022   0.114   0.000   0.136
    6        0.018   0.099   0.000   0.117
    7        0.034   0.036   3.564   3.634
    8        0.034   0.036   3.564   3.634
    9        0.034   0.030   3.566   3.630
tot          0.165   0.609  10.694  11.468