 vasp.6.2.0 18Jan21 (build Feb  9 2021 11:43:09) complex
 executed on       CrayXC_GCC_OMP date 2021.04.30  02:59:04

 INCAR:
   AEXX = 0.25
   ALGO = all
   EDIFF = 2.4e-05
   EDIFFG = -0.03
   ENCUT = 520
   GGA = pe
   HFSCREEN = 0.207
   IBRION = 2
   ISIF = 3
   ISMEAR = 0
   ISPIN = 2
   KPAR = 18
   LASPH = .TRUE.
   LHFCALC = .TRUE.
   LMAXFOCK = 4
   LORBIT = 11
   LREAL = .FALSE.
   LVHAR = .TRUE.
   LWAVE = .TRUE.
   MAGMOM = 0.6 0.6 0.6 0.6 0.6 0.6 0.6 0.6 5 5 5 5 5 5 0.6 0.6 0.6 0.6 0.6 0.6 0.6 0.6 0.6 0.6
   NCORE = 8
   NEDOS = 2000
   NELM = 200
   NELMIN = 4
   NSW = 60
   NWRITE = 1
   PREC = accurate
   PRECFOCK = fast
   SIGMA = 0.05
   TIME = 0.3

 POTCAR:    PAW_PBE Li_sv 10Sep2004
 POTCAR:    PAW_PBE Fe_pv 02Aug2007
 POTCAR:    PAW_PBE S 06Sep2000
 POTCAR:    PAW_PBE O 08Apr2002
 POTCAR:    PAW_PBE Li_sv 10Sep2004

 POTCAR:    PAW_PBE Fe_pv 02Aug2007

 POTCAR:    PAW_PBE S 06Sep2000

 POTCAR:    PAW_PBE O 08Apr2002

  PAW_PBE Li_sv 10Sep2004               :
  PAW_PBE Fe_pv 02Aug2007               :
  PAW_PBE S 06Sep2000                   :
  PAW_PBE O 08Apr2002                   :

 POSCAR: # Compound: Li8Fe6S6O4. Old comment: Fe6
  positions in direct lattice
 exchange correlation table for  LEXCH =        8
   RHO(1)=    0.500       N(1)  =     2000
   RHO(2)=  100.500       N(2)  =     4000

 ion  position               nearest neighbor table
   1  0.954  0.003  0.006-  23 1.92  22 2.02  16 2.55  16 2.55
   2  0.546  0.997  0.994-  21 1.92  24 2.02  16 2.55  16 2.55
   3  0.360  0.805  0.611-  21 1.99  17 2.46  19 2.63  19 2.63
   4  0.140  0.195  0.389-  23 1.99  19 2.46  17 2.63  17 2.63
   5  0.217  0.921  0.842-  21 1.87  22 1.97  15 2.58  15 2.58
   6  0.686  0.888  0.776-  21 1.86  22 1.97  20 2.50  20 2.50
   7  0.283  0.079  0.158-  23 1.87  24 1.97  15 2.58  15 2.58
   8  0.814  0.112  0.224-  23 1.86  24 1.97  18 2.50  18 2.50
   9  0.931  0.802  0.603-  22 2.06  18 2.38  19 2.60  19 2.60
  10  0.569  0.198  0.397-  24 2.06  20 2.38  17 2.60  17 2.60
  11  0.447  0.400  0.801-  21 2.04  21 2.04  19 2.58  20 2.61  15 2.73  16 2.77
  12  0.955  0.407  0.815-  22 2.04  22 2.04  19 2.57  20 2.58  15 2.64  16 2.66
  13  0.053  0.600  0.199-  23 2.04  23 2.04  17 2.58  18 2.61  15 2.73  16 2.77
  14  0.545  0.593  0.185-  24 2.04  24 2.04  17 2.57  18 2.58  15 2.64  16 2.66
  15  0.250  0.500  0.000-   5 2.58   7 2.58   7 2.58   5 2.58  14 2.64  12 2.64  11 2.73  13 2.73

  16  0.750  0.500  0.000-   1 2.55   2 2.55   1 2.55   2 2.55  14 2.66  12 2.66  11 2.77  13 2.77

  17  0.352  0.684  0.369-   3 2.46  14 2.57  13 2.58  10 2.60  10 2.60   4 2.63   4 2.63
  18  0.832  0.684  0.368-   9 2.38   8 2.50   8 2.50  14 2.58  13 2.61
  19  0.148  0.316  0.631-   4 2.46  12 2.57  11 2.58   9 2.60   9 2.60   3 2.63   3 2.63
  20  0.668  0.316  0.632-  10 2.38   6 2.50   6 2.50  12 2.58  11 2.61
  21  0.451  0.903  0.806-   6 1.86   5 1.87   2 1.92   3 1.99  11 2.04  11 2.04
  22  0.952  0.904  0.807-   5 1.97   6 1.97   1 2.02  12 2.04  12 2.04   9 2.06
  23  0.049  0.097  0.194-   8 1.86   7 1.87   1 1.92   4 1.99  13 2.04  13 2.04
  24  0.548  0.096  0.193-   7 1.97   8 1.97   2 2.02  14 2.04  14 2.04  10 2.06

  LATTYP: Found a base centered monoclinic cell.
 ALAT       =    20.3969499036
 B/A-ratio  =     0.2003229663
 C/A-ratio  =     0.3702840108
 COS(beta)  =    -0.1846098530

  Lattice vectors:

 A1 = (  -0.1459047400,   3.8598194700,   9.6572874000)
 A2 = (  -0.0086435800,  -0.1557585400,  10.3999211000)
 A3 = (   7.4290102400,   0.0022238100,  -1.3610810900)

Analysis of symmetry for initial positions (statically):
 Subroutine PRICEL returns:
 Original cell was already a primitive cell.

 Routine SETGRP: Setting up the symmetry group for a
 base centered monoclinic supercell.

 Subroutine GETGRP returns: Found  4 space group operations
 (whereof  2 operations were pure point group operations)
 out of a pool of  4 trial point group operations.

The static configuration has the point symmetry C_1h.
 The point group associated with its full space group is C_2h.

Analysis of symmetry for dynamics (positions and initial velocities):
 Subroutine PRICEL returns:
 Original cell was already a primitive cell.

[...]

The dynamic configuration has the point symmetry C_1h.
 The point group associated with its full space group is C_2h.

Analysis of structural, dynamic, and magnetic symmetry:
 Subroutine PRICEL returns:
 Original cell was already a primitive cell.

 Routine SETGRP: Setting up the symmetry group for a
 base centered monoclinic supercell.

 Subroutine GETGRP returns: Found  4 space group operations
 (whereof  2 operations were pure point group operations)
 out of a pool of  4 trial point group operations.

The overall configuration has the point symmetry C_1h.
 The point group associated with its full space group is C_2h.

 Subroutine INISYM returns: Found  4 space group operations
 (whereof  2 operations are pure point group operations),
 and found     1 'primitive' translations

                                     Primitive cell

  volume of cell :     309.3156

  direct lattice vectors                    reciprocal lattice vectors
     7.429010240  0.002223810 -1.361081090     0.134639268  0.004635797  0.000181331
    -0.137261160  4.015578010 -0.742633700     0.000610614  0.249742855  0.003740880
    -0.008643580 -0.155758540 10.399921100     0.017664406  0.018440251  0.096445435

  length of vectors
     7.552664419  4.085977508 10.401091016     0.134719174  0.249771617  0.099768712

  position of ions in fractional coordinates (direct lattice)
     0.953718230  0.002765520  0.005531040
     0.546281770  0.997234480  0.994468960
     0.360493760  0.805275890  0.610551770
     0.139506240  0.194724110  0.389448230
     0.217080810  0.921193170  0.842386360
     0.686474760  0.887873490  0.775746980
     0.282919190  0.078806830  0.157613640
     0.813525240  0.112126510  0.224253020
     0.931284060  0.801507150  0.603014310
     0.568715940  0.198492850  0.396985690
     0.446740440  0.400494900  0.800989790
     0.955374040  0.407264170  0.814528340
     0.053259560  0.599505100  0.199010210
     0.544625960  0.592735830  0.185471660
     0.250000000  0.500000000  1.000000000
     0.750000000  0.500000000  1.000000000
     0.352001450  0.684324700  0.368649410
     0.832094990  0.683866840  0.367733680
     0.147998550  0.315675300  0.631350590
     0.667905010  0.316133160  0.632266320
     0.450535970  0.903129360  0.806258710
     0.952173790  0.903684140  0.807368270
     0.049464030  0.096870640  0.193741290
     0.547826210  0.096315860  0.192631730

  ion indices of the primitive-cell ions
   primitive index   ion index
                 1           1
                 2           2
                 3           3
                 4           4
                 5           5
                 6           6
                 7           7
                 8           8
                 9           9
                10          10
                11          11
                12          12
                13          13
                14          14
                15          15
                16          16
                17          17
                18          18
                19          19
                20          20
                21          21
                22          22
                23          23
                24          24

 KPOINTS: # No comment

Automatic generation of k-mesh.
 Grid dimensions read from file:
 generate k-points for:    3    5    2

 Generating k-lattice:

  Cartesian coordinates                     Fractional coordinates (reciprocal lattice)
     0.044879756  0.001545266  0.000060444     0.333333333 -0.000000000 -0.000000000
     0.000122123  0.049948571  0.000748176    -0.000000000  0.200000000 -0.000000000
     0.008832203  0.009220126  0.048222717    -0.000000000  0.000000000  0.500000000

  Length of vectors
     0.044906391  0.049954323  0.049884356

  Shift w.r.t. Gamma in fractional coordinates (k-lattice)
     0.000000000  0.000000000  0.000000000

 WARNING: IBZKPT: internal override: KBLOWUP is changed to .FALSE.
      ... skipping the blow-up phase ...

 Subroutine IBZKPT returns following result:

 Found     16 irreducible k-points:

 Following reciprocal coordinates:
            Coordinates               Weight
  0.000000  0.000000  0.000000      1.000000
  0.333333  0.000000  0.000000      2.000000
  0.000000  0.200000  0.000000      2.000000
  0.333333  0.200000  0.000000      2.000000
 -0.333333  0.200000  0.000000      2.000000
  0.000000  0.400000  0.000000      2.000000
  0.333333  0.400000  0.000000      2.000000
 -0.333333  0.400000  0.000000      2.000000
  0.000000  0.000000  0.500000      1.000000
  0.333333  0.000000  0.500000      2.000000
  0.000000  0.200000  0.500000      2.000000
  0.333333  0.200000  0.500000      2.000000
 -0.333333  0.200000  0.500000      2.000000
  0.000000  0.400000  0.500000      2.000000
  0.333333  0.400000  0.500000      2.000000
 -0.333333  0.400000  0.500000      2.000000

 Following cartesian coordinates:
            Coordinates               Weight
  0.000000  0.000000  0.000000      1.000000
  0.044880  0.001545  0.000060      2.000000
  0.000122  0.049949  0.000748      2.000000
  0.045002  0.051494  0.000809      2.000000
 -0.044758  0.048403  0.000688      2.000000
  0.000244  0.099897  0.001496      2.000000
  0.045124  0.101442  0.001557      2.000000
 -0.044636  0.098352  0.001436      2.000000
  0.008832  0.009220  0.048223      1.000000
  0.053712  0.010765  0.048283      2.000000
  0.008954  0.059169  0.048971      2.000000
  0.053834  0.060714  0.049031      2.000000
 -0.035925  0.057623  0.048910      2.000000
  0.009076  0.109117  0.049719      2.000000
  0.053956  0.110663  0.049780      2.000000
 -0.035803  0.107572  0.049659      2.000000

 WARNING: full set of k-points will be restricted to regular points only.

 Subroutine IBZKPT_HF returns following result:

 Found     30 k-points in 1st BZ
 the following     30 k-points will be used (e.g. in the exchange kernel)
 Following reciprocal coordinates:   # in IRBZ
  0.000000  0.000000  0.000000    0.03333333   1 t-inv F
  0.333333  0.000000  0.000000    0.03333333   2 t-inv F
  0.000000  0.200000  0.000000    0.03333333   3 t-inv F
  0.333333  0.200000  0.000000    0.03333333   4 t-inv F
 -0.333333  0.200000  0.000000    0.03333333   5 t-inv F
  0.000000  0.400000  0.000000    0.03333333   6 t-inv F
  0.333333  0.400000  0.000000    0.03333333   7 t-inv F
 -0.333333  0.400000  0.000000    0.03333333   8 t-inv F
  0.000000  0.000000  0.500000    0.03333333   9 t-inv F
  0.333333  0.000000  0.500000    0.03333333  10 t-inv F
  0.000000  0.200000  0.500000    0.03333333  11 t-inv F
  0.333333  0.200000  0.500000    0.03333333  12 t-inv F
 -0.333333  0.200000  0.500000    0.03333333  13 t-inv F
  0.000000  0.400000  0.500000    0.03333333  14 t-inv F
  0.333333  0.400000  0.500000    0.03333333  15 t-inv F
 -0.333333  0.400000  0.500000    0.03333333  16 t-inv F
 -0.333333 -0.000000 -0.000000    0.03333333   2 t-inv F
 -0.000000 -0.200000 -0.000000    0.03333333   3 t-inv F
[...]
      6.08460      2.69069      2.18399         0.012039      0.001172      0.004112
      1.05070      1.16961      6.13013        -0.008496     -0.000695     -0.002186
      4.91302      1.17246      5.43168        -0.012039     -0.001172     -0.004112
      3.21610      3.50201      7.10112        -0.000949      0.002701      0.014783
      6.94269      3.50518      6.42947        -0.001827      0.000492      0.002999
      0.35250      0.35892      1.87563         0.000949     -0.002701     -0.014783
      4.05492      0.35798      1.18619         0.001827     -0.000492     -0.002999
    total drift:                                0.000044     -0.000150     -0.000034

  FREE ENERGIE OF THE ION-ELECTRON SYSTEM (eV)
  free  energy   TOTEN  =      -177.23473420 eV

  energy  without entropy=     -177.23473420  energy(sigma->0) =     -177.23473420

 writing wavefunctions

[...]

 eigenvalue-minimisations  :     0
 total energy-change (2. order) : 0.6708534E-02  (-0.4442045E-02)
 number of electron     168.0000057 magnetization      24.0000011
 augmentation part       56.3891118 magnetization      16.0230670

  free energy =  -0.177228002058E+03  energy without entropy=  -0.177228002058E+03

[...]

 d Force = 0.2666443E-03[ 0.256E-03, 0.277E-03]  d Energy = 0.3130234E-03-0.464E-04
 d Force = 0.3211028E+00[ 0.320E+00, 0.322E+00]  d Ewald  =-0.6130343E+00 0.934E+00

 Steepest descent step on ions:
 trial-energy change:   -0.000313  1 .order   -0.000301   -0.000332   -0.000270
  (g-gl).g = 0.332E-03      g.g   = 0.332E-03  gl.gl    = 0.000E+00
 g(Force)  = 0.277E-03   g(Stress)= 0.551E-04 ortho     = 0.000E+00
 gamma     =   0.00000
 trial     =   1.00000
 opt step  =   4.00000  (harmonic =   5.32211) maximal distance =0.00689965
 next E    =  -177.235618   (d E  =  -0.00088)

 writing wavefunctions

[...]

 eigenvalue-minimisations  :     0
 total energy-change (2. order) : 0.6284191E-01  (-0.3975202E-01)
 number of electron     168.0000065 magnetization      24.0000011
 augmentation part       56.4066609 magnetization      16.0208610

[...]

--------------------------------------- Iteration      3(   9)  ---------------------------------------

 eigenvalue-minimisations  :     0
 total energy-change (2. order) :-0.1564270E-04  (-0.8139030E-05)
 number of electron     168.0000065 magnetization      24.0000011
 augmentation part       56.3821769 magnetization      16.0256901

  free energy =  -0.177235385303E+03  energy without entropy=  -0.177235385303E+03

  average scaling for gradient   0.7470

 average (electrostatic) potential at core
  the test charge radii are     0.7079  0.9500  0.9698  0.7215
  (the norm of the test charge is              1.0000)
       1 -53.3908       2 -53.3908       3 -53.6674       4 -53.6674       5 -53.1012
       6 -53.0435       7 -53.1012       8 -53.0435       9 -71.7147      10 -71.7147
      11 -71.3355      12 -71.6413      13 -71.3355      14 -71.6413      15 -82.1264
      16 -82.0810      17 -82.1072      18 -82.1303      19 -82.1072      20 -82.1303
      21 -62.9252      22 -63.9609      23 -62.9252      24 -63.9609

 E-fermi :   4.9338     XC(G=0):  -8.5557     alpha+bet :-12.6583

 Fermi energy:         4.9337637423

[...]

 k-point    16 :      -0.3333    0.4000    0.5000
  band No.  band energies     occupation
      1     -56.3793      1.00000
      2     -56.3792      1.00000
      3     -56.3341      1.00000
      4     -56.3340      1.00000
      5     -56.1925      1.00000
      6     -56.1924      1.00000
      7     -54.9199      1.00000
      8     -54.9198      1.00000
      9     -54.8196      1.00000
     10     -54.8196      1.00000
     11     -54.7848      1.00000
     12     -54.7847      1.00000
     13     -54.7834      1.00000
     14     -54.7833      1.00000
     15     -54.4698      1.00000
     16     -54.4698      1.00000
     17     -54.3035      1.00000
     18     -54.3035      1.00000
     19     -43.8786      1.00000
     20     -43.8775      1.00000
     21     -43.6122      1.00000
     22     -43.6082      1.00000
     23     -43.3250      1.00000
     24     -43.3228      1.00000
     25     -43.2709      1.00000
     26     -43.2704      1.00000
     27     -16.1197      1.00000
     28     -16.1193      1.00000
     29     -14.9360      1.00000
     30     -14.9358      1.00000
     31      -9.3043      1.00000
     32      -9.2088      1.00000
     33      -9.0491      1.00000
     34      -8.8966      1.00000
     35      -8.8139      1.00000
     36      -8.7317      1.00000
     37      -3.4703      1.00000
     38      -3.4060      1.00000
     39      -2.7315      1.00000
     40      -2.6307      1.00000
     41      -2.3562      1.00000
     42      -2.2954      1.00000
     43      -2.2574      1.00000
     44      -2.2501      1.00000
     45      -1.6612      1.00000
     46      -1.5862      1.00000
     47      -1.5648      1.00000
     48      -1.4493      1.00000
     49      -1.4038      1.00000
     50      -1.3814      1.00000
     51      -1.2670      1.00000
     52      -1.1800      1.00000
     53      -1.1499      1.00000
     54      -1.0331      1.00000
     55      -0.9721      1.00000
     56      -0.9038      1.00000
     57      -0.8360      1.00000
     58      -0.8190      1.00000
     59      -0.7606      1.00000
     60      -0.5868      1.00000
[...]
    106      11.4364      0.00000
    107      11.8377      0.00000
    108      11.9498      0.00000
    109      12.2844      0.00000
    110      12.3491      0.00000
    111      12.4490      0.00000
    112      12.5956      0.00000
    113      12.8464      0.00000
    114      12.9614      0.00000
    115      13.3176      0.00000
    116      13.4016      0.00000
    117      13.6215      0.00000
    118      13.8103      0.00000
    119      14.0733      0.00000
    120      14.3171      0.00000
 Fermi energy:         4.9337637423

 spin component 2

[...]

 k-point    16 :      -0.3333    0.4000    0.5000
  band No.  band energies     occupation
      1     -49.7340      1.00000
      2     -49.7338      1.00000
      3     -49.6872      1.00000
      4     -49.6870      1.00000
      5     -49.6854      1.00000
      6     -49.6851      1.00000
      7     -49.6216      1.00000
      8     -49.6213      1.00000
      9     -49.6163      1.00000
     10     -49.6163      1.00000
     11     -49.6074      1.00000
     12     -49.6071      1.00000
     13     -49.5143      1.00000
     14     -49.5141      1.00000
     15     -49.3371      1.00000
     16     -49.3370      1.00000
     17     -49.1435      1.00000
     18     -49.1435      1.00000
     19     -43.8709      1.00000
     20     -43.8698      1.00000
     21     -43.6135      1.00000
     22     -43.6095      1.00000
     23     -43.3299      1.00000
     24     -43.3277      1.00000
     25     -43.2718      1.00000
     26     -43.2713      1.00000
     27     -15.6388      1.00000
     28     -15.6381      1.00000
     29     -14.7224      1.00000
     30     -14.7223      1.00000
     31      -9.0130      1.00000
     32      -8.9010      1.00000
     33      -8.7495      1.00000
     34      -8.5749      1.00000
     35      -8.5118      1.00000
     36      -8.4221      1.00000
     37      -2.0918      1.00000
     38      -1.8458      1.00000
     39      -1.4606      1.00000
     40      -1.3048      1.00000
     41      -1.1211      1.00000
     42      -1.0370      1.00000
     43      -0.8079      1.00000
     44      -0.6641      1.00000
     45      -0.3749      1.00000
     46      -0.2096      1.00000
     47       0.0025      1.00000
     48       0.0917      1.00000
     49       0.4170      1.00000
     50       0.5244      1.00000
     51       0.7090      1.00000
     52       0.7449      1.00000
     53       0.8840      1.00000
     54       0.9724      1.00000
     55       1.1304      1.00000
     56       1.2652      1.00000
     57       1.5084      1.00000
     58       1.6239      1.00000
     59       1.7023      1.00000
     60       1.7729      1.00000
[...]
    106      12.5418      0.00000
    107      12.8482      0.00000
    108      12.8615      0.00000
    109      13.1510      0.00000
    110      13.1819      0.00000
    111      13.3426      0.00000
    112      13.4362      0.00000
    113      13.5539      0.00000
    114      13.6221      0.00000
    115      13.8554      0.00000
    116      13.9657      0.00000
    117      14.1597      0.00000
    118      14.2815      0.00000
    119      14.4795      0.00000
    120      14.6403      0.00000

[...]

 soft charge-density along one line, spin component           2
         0         1         2         3         4         5         6         7         8         9
 total charge-density along one line

------------------------ aborting loop because EDIFF is reached ----------------------------------------

[...]

  FORCE on cell =-STRESS in cart. coord.  units (eV):
  Direction    XX          YY          ZZ          XY          YZ          ZX
  Alpha Z   456.74369   456.74369   456.74369
  Ewald   -4646.68080 -2429.72635 -4390.76465   -46.15658  -369.68953   173.11023
  Hartree  1621.82319  3326.06479  1622.67797   -38.43927  -322.20730   118.83593
  E(xc)    -682.37057  -681.57434  -681.73507    -0.00974    -0.02767     0.09220
  Local     302.28672 -3563.64605   136.99772    84.42816   699.10830  -283.59548
  n-local   593.49151   603.44771   593.50488    -0.11095    -1.85564     1.36112
  augment   854.08183   826.38754   797.59223    -0.13491    -5.68465    -5.14249
  Kinetic  2210.86961  2160.07054  2152.07710     0.38585    -1.76261    -6.94516
  Fock     -710.39291  -698.09555  -687.28550     0.05709     2.14711     2.30080
  Total      -0.14701    -0.32876    -0.19161     0.00905     0.02683     0.01904
  in kB      -0.76035    -1.70042    -0.99106     0.04679     0.13879     0.09850

 VOLUME and BASIS-vectors are now :
  energy-cutoff  :      520.00
  volume of cell :      309.76
      direct lattice vectors                 reciprocal lattice vectors
     7.428201262  0.002089941 -1.361655422     0.134655598  0.004637939  0.000189896
    -0.137438720  4.020772535 -0.743594366     0.000623737  0.249429827  0.003785496
    -0.009233696 -0.157862021 10.403196895     0.017669408  0.018435668  0.096419731

  length of vectors
     7.551972182  4.091263100 10.404398652     0.134735580  0.249459331  0.099743904

 FORCES acting on ions:
    Electron-Ion                     Ewald-Force                    Non-Local-Force
   0.192E+02 -.715E+00 -.740E+01   -.191E+02 0.937E+00 0.860E+01   -.919E-01 -.228E+00 -.121E+01
   -.192E+02 0.715E+00 0.740E+01   0.191E+02 -.937E+00 -.860E+01   0.919E-01 0.228E+00 0.121E+01
   0.225E+02 0.180E+02 0.930E+02   -.224E+02 -.178E+02 -.919E+02   -.140E+00 -.224E+00 -.119E+01
   -.225E+02 -.180E+02 -.930E+02   0.224E+02 0.178E+02 0.919E+02   0.140E+00 0.224E+00 0.119E+01
   -.175E+02 -.470E+01 -.222E+02   0.187E+02 0.465E+01 0.217E+02   -.123E+01 0.598E-01 0.551E+00
   0.292E+02 0.389E+01 0.157E+02   -.305E+02 -.392E+01 -.156E+02   0.133E+01 0.238E-01 -.117E+00
   0.175E+02 0.470E+01 0.222E+02   -.187E+02 -.465E+01 -.217E+02   0.123E+01 -.598E-01 -.551E+00
   -.292E+02 -.389E+01 -.157E+02   0.305E+02 0.392E+01 0.156E+02   -.133E+01 -.238E-01 0.117E+00
   -.385E+02 0.753E+02 0.414E+03   0.401E+02 -.753E+02 -.415E+03   -.142E+01 0.204E-01 0.372E+00
   0.385E+02 -.753E+02 -.414E+03   -.401E+02 0.753E+02 0.415E+03   0.142E+01 -.204E-01 -.372E+00
   0.170E+02 0.250E+02 0.132E+03   -.178E+02 -.253E+02 -.134E+03   0.672E+00 0.275E+00 0.136E+01
   -.416E+01 -.208E+02 -.112E+03   0.428E+01 0.205E+02 0.110E+03   -.113E+00 0.238E+00 0.131E+01
   -.170E+02 -.250E+02 -.132E+03   0.178E+02 0.253E+02 0.134E+03   -.672E+00 -.275E+00 -.136E+01
   0.416E+01 0.208E+02 0.112E+03   -.428E+01 -.205E+02 -.110E+03   0.113E+00 -.238E+00 -.131E+01
   0.494E-05 -.115E-05 0.137E-05   0.355E-13 -.711E-14 -.711E-14   0.273E-22 0.159E-20 -.114E-22
   0.442E-05 0.171E-05 -.148E-05   -.249E-13 -.711E-14 -.782E-13   -.167E-22 0.656E-22 0.138E-20
   0.931E+02 -.353E+02 -.208E+03   -.936E+02 0.355E+02 0.209E+03   0.510E+00 -.148E+00 -.897E+00
   -.105E+03 -.127E+02 -.492E+02   0.106E+03 0.127E+02 0.492E+02   -.290E+00 -.127E-01 -.152E-01
   -.931E+02 0.353E+02 0.208E+03   0.936E+02 -.355E+02 -.209E+03   -.510E+00 0.148E+00 0.897E+00
   0.105E+03 0.127E+02 0.492E+02   -.106E+03 -.127E+02 -.492E+02   0.290E+00 0.127E-01 0.152E-01
   0.440E+01 0.915E+01 0.487E+02   -.440E+01 -.920E+01 -.489E+02   0.818E-02 0.441E-01 0.237E+00
   -.436E+01 -.217E+02 -.117E+03   0.462E+01 0.225E+02 0.121E+03   -.231E+00 -.676E+00 -.361E+01
   -.440E+01 -.915E+01 -.487E+02   0.440E+01 0.920E+01 0.489E+02   -.818E-02 -.441E-01 -.237E+00
   0.436E+01 0.217E+02 0.117E+03   -.462E+01 -.225E+02 -.121E+03   0.231E+00 0.676E+00 0.361E+01
   0.340E-04 -.810E-06 -.587E-06   -.568E-13 -.213E-13 -.114E-12   -.250E-15 0.000E+00 0.444E-15

 POSITION                                       TOTAL-FORCE (eV/Angst)
      7.08420      0.01198     -1.24461        -0.006652     -0.000839     -0.003306
      3.91143      3.85407      8.86173         0.006652      0.000839      0.003306
      2.56361      3.14355      5.26892         0.001060      0.001441      0.007593
      1.00381      0.72041      3.70985        -0.001060     -0.001441     -0.007593
      1.47785      3.57188      7.78569        -0.006018      0.001920      0.011494
      4.96954      3.44881      6.47486        -0.001209      0.000121      0.000876
      2.08958      0.29207      1.19308         0.006018     -0.001920     -0.011494
      6.02608      0.41723      1.14226         0.001209     -0.000121     -0.000876
      6.80272      3.12899      4.40666         0.014840      0.004739      0.022884
      4.19291      0.73706      3.21046        -0.014840     -0.004739     -0.022884
      3.25208      1.48479      7.42750        -0.013004      0.001566      0.010872
      7.03217      1.51095      6.87029        -0.010497     -0.001680     -0.007144
      0.31535      2.37916      1.55128         0.013004     -0.001566     -0.010872
      3.96346      2.35509      0.74683         0.010497      0.001680      0.007144
      1.78833      2.01091     -0.71221        -0.000000      0.000000     -0.000000
      5.50243      2.01195     -1.39304        -0.000000      0.000000     -0.000000
      2.51892      2.69419      2.84739         0.004650      0.000538      0.002051
      6.08591      2.69359      2.18485         0.006328     -0.003870     -0.022095
      1.04851      1.16977      6.13139        -0.004650     -0.000538     -0.002051
      4.90972      1.17246      5.43227        -0.006328      0.003870      0.022095
      3.21492      3.50546      7.10548        -0.003182      0.000280      0.002103
      6.94093      3.50814      6.43128        -0.005967     -0.003742     -0.019130
      0.35251      0.35849      1.87329         0.003182     -0.000280     -0.002103
      4.05470      0.35790      1.18584         0.005967      0.003742      0.019130
    total drift:                                0.000034     -0.000001     -0.000001

  FREE ENERGIE OF THE ION-ELECTRON SYSTEM (eV)
  free  energy   TOTEN  =      -177.23538530 eV

  energy  without entropy=     -177.23538530  energy(sigma->0) =     -177.23538530

 d Force = 0.4708241E-03[ 0.173E-03, 0.769E-03]  d Energy = 0.3380816E-03 0.133E-03
 d Force = 0.9487923E+00[ 0.938E+00, 0.960E+00]  d Ewald  =-0.1855577E+01 0.280E+01

 reached required accuracy - stopping structural energy minimisation
 writing wavefunctions

 total charge

[...]

 magnetization (x)

# of ion       s       p       d       tot
    1       -0.000  -0.000   0.000  -0.000
    2       -0.000  -0.000   0.000  -0.000
    3        0.001   0.002   0.000   0.003
    4        0.001   0.002   0.000   0.003
    5       -0.001  -0.001   0.000  -0.002
    6       -0.000  -0.000   0.000  -0.000
    7       -0.001  -0.001   0.000  -0.002
    8       -0.000  -0.000   0.000  -0.000
    9        0.031   0.022   3.573   3.625
   10        0.031   0.022   3.573   3.625
   11        0.032   0.025   3.572   3.629
   12        0.030   0.024   3.586   3.639
   13        0.032   0.025   3.572   3.629
   14        0.030   0.024   3.586   3.639
   15        0.018   0.084   0.000   0.102
   16        0.017   0.079   0.000   0.096
   17        0.019   0.107   0.000   0.125
   18        0.019   0.107   0.000   0.126
   19        0.019   0.107   0.000   0.125
   20        0.019   0.107   0.000   0.126
   21        0.009   0.061   0.000   0.070
   22        0.015   0.149   0.000   0.164
   23        0.009   0.061   0.000   0.070
   24        0.015   0.149   0.000   0.164
tot          0.342   1.154  21.461  22.957