 vasp.6.2.0 18Jan21 (build Feb  9 2021 11:43:09) complex
 executed on       CrayXC_GCC_OMP date 2021.05.01  16:37:42

 INCAR:
   AEXX = 0.25
   ALGO = all
   EDIFF = 2.8e-05
   EDIFFG = -0.03
   ENCUT = 520
   GGA = pe
   HFSCREEN = 0.207
   IBRION = 2
   ISIF = 3
   ISMEAR = 0
   ISPIN = 2
   KPAR = 14
   LASPH = .TRUE.
   LHFCALC = .TRUE.
   LMAXFOCK = 4
   LORBIT = 11
   LREAL = .FALSE.
   LVHAR = .TRUE.
   LWAVE = .TRUE.
   MAGMOM = 0.6 0.6 0.6 0.6 0.6 0.6 0.6 0.6 0.6 0.6 0.6 0.6 0.6 0.6 0.6 0.6 0.6 0.6 0.6 0.6 5 5 5 5 5 5 5 5
   NCORE = 1
   NEDOS = 2000
   NELM = 200
   NELMIN = 4
   NSW = 60
   NWRITE = 1
   PREC = accurate
   PRECFOCK = fast
   SIGMA = 0.05
   TIME = 0.3

 POTCAR:    PAW_PBE Li_sv 10Sep2004
 POTCAR:    PAW_PBE O 08Apr2002
 POTCAR:    PAW_PBE S 06Sep2000
 POTCAR:    PAW_PBE Fe_pv 02Aug2007
 POTCAR:    PAW_PBE Li_sv 10Sep2004

 POTCAR:    PAW_PBE O 08Apr2002

 POTCAR:    PAW_PBE S 06Sep2000

 POTCAR:    PAW_PBE Fe_pv 02Aug2007

  PAW_PBE Li_sv 10Sep2004               :
  PAW_PBE O 08Apr2002                   :
  PAW_PBE S 06Sep2000                   :
  PAW_PBE Fe_pv 02Aug2007               :

 POSCAR: # Compound: Li8O4S8Fe8. Old comment: Fe8
  positions in direct lattice
 exchange correlation table for  LEXCH =        8
   RHO(1)=    0.500       N(1)  =     2000
   RHO(2)=  100.500       N(2)  =     4000

 ion  position               nearest neighbor table
   1  0.224  0.062  0.000-  10 1.94   9 1.94  17 2.55  13 2.55
   2  0.724  0.989  0.000-  10 1.94   9 1.94  16 2.55  20 2.55
   3  0.224  0.489  0.000-  11 1.94  12 1.94  13 2.55  17 2.55
   4  0.724  0.562  0.000-  11 1.94  12 1.94  20 2.55  16 2.55
   5  0.511  0.276  1.000-   9 1.94  11 1.94  18 2.55  14 2.55
   6  0.938  0.276  1.000-  12 1.94  10 1.94  14 2.55  18 2.55
   7  0.438  0.776  1.000-   9 1.94  11 1.94  15 2.55  19 2.55
   8  0.011  0.776  1.000-  12 1.94  10 1.94  19 2.55  15 2.55
   9  0.474  0.026  1.000-   7 1.94   1 1.94   5 1.94   2 1.94  22 2.04  27 2.04
  10  0.974  0.026  0.000-   1 1.94   6 1.94   2 1.94   8 1.94  28 2.04  21 2.04
  11  0.474  0.526  0.000-   4 1.94   7 1.94   3 1.94   5 1.94  25 2.04  24 2.04
  12  0.974  0.526  1.000-   6 1.94   4 1.94   8 1.94   3 1.94  23 2.04  26 2.04
  13  0.300  0.352  0.303-  25 2.44   3 2.55   1 2.55  22 2.72  21 2.72  24 2.72  23 2.72
  14  0.800  0.352  0.303-  26 2.44   5 2.55   6 2.55  21 2.72  23 2.72  22 2.72  24 2.72
  15  0.300  0.852  0.303-  27 2.44   8 2.55   7 2.55  24 2.72  22 2.72  23 2.72  21 2.72
  16  0.800  0.852  0.303-  28 2.44   2 2.55   4 2.55  23 2.72  24 2.72  21 2.72  22 2.72
  17  0.148  0.200  0.697-  21 2.44   3 2.55   1 2.55  27 2.72  28 2.72  25 2.72  26 2.72
  18  0.648  0.200  0.697-  22 2.44   5 2.55   6 2.55  28 2.72  26 2.72  27 2.72  25 2.72
  19  0.148  0.700  0.697-  23 2.44   8 2.55   7 2.55  25 2.72  27 2.72  26 2.72  28 2.72
  20  0.648  0.700  0.697-  24 2.44   2 2.55   4 2.55  26 2.72  25 2.72  28 2.72  27 2.72
  21  0.054  0.105  0.318-  10 2.04  17 2.44  14 2.72  13 2.72  16 2.72  15 2.72
  22  0.554  0.105  0.318-   9 2.04  18 2.44  13 2.72  15 2.72  14 2.72  16 2.72
  23  0.054  0.605  0.318-  12 2.04  19 2.44  16 2.72  14 2.72  15 2.72  13 2.72
  24  0.554  0.605  0.318-  11 2.04  20 2.44  15 2.72  16 2.72  13 2.72  14 2.72
  25  0.395  0.446  0.682-  11 2.04  13 2.44  19 2.72  20 2.72  17 2.72  18 2.72
  26  0.895  0.446  0.682-  12 2.04  14 2.44  20 2.72  18 2.72  19 2.72  17 2.72
  27  0.395  0.946  0.682-   9 2.04  15 2.44  17 2.72  19 2.72  18 2.72  20 2.72
  28  0.895  0.946  0.682-  10 2.04  16 2.44  18 2.72  17 2.72  20 2.72  19 2.72

  LATTYP: Found a base centered monoclinic cell.
 ALAT       =    10.8749739061
 B/A-ratio  =     1.0000101723
 C/A-ratio  =     0.6417943054
 COS(beta)  =    -0.3895307059

  Lattice vectors:

 A1 = (   7.6897987200,   0.0013039900,  -0.0063390200)
 A2 = (  -0.0013874400,   7.6898096300,  -0.0063390300)
 A3 = (  -1.9167941200,  -1.9174672700,   6.4313753200)

Analysis of symmetry for initial positions (statically):
 Subroutine PRICEL returns following result:

  LATTYP: Found a base centered orthorhombic cell.
 ALAT       =     5.4374869531
 B/A-ratio  =     2.3644048249
 C/A-ratio  =     1.0000101723

[...]

   2 primitive cells build up your supercell.

 Routine SETGRP: Setting up the symmetry group for a
 base centered monoclinic supercell.

 Subroutine GETGRP returns: Found  2 space group operations
 (whereof  1 operations were pure point group operations)
 out of a pool of  4 trial point group operations.

The static configuration has the point symmetry C_1 .
 The point group associated with its full space group is C_2 .

Analysis of symmetry for dynamics (positions and initial velocities):
 Subroutine PRICEL returns following result:

[...]

The dynamic configuration has the point symmetry C_1 .
 The point group associated with its full space group is C_2 .

Analysis of structural, dynamic, and magnetic symmetry:
 Subroutine PRICEL returns following result:

  LATTYP: Found a base centered orthorhombic cell.
 ALAT       =     5.4374869531
 B/A-ratio  =     2.3644048249
 C/A-ratio  =     1.0000101723

  Lattice vectors:

 A1 = (   1.9167941200,   1.9174672700,  -6.4313753200)
 A2 = (   1.9274115200,   1.9280895400,   6.4250362950)
 A3 = (   3.8455930800,  -3.8442528200,   0.0000000050)

   2 primitive cells build up your supercell.

 Routine SETGRP: Setting up the symmetry group for a
 base centered monoclinic supercell.

 Subroutine GETGRP returns: Found  2 space group operations
 (whereof  1 operations were pure point group operations)
 out of a pool of  4 trial point group operations.

The overall configuration has the point symmetry C_1 .
 The point group associated with its full space group is C_2 .

 Subroutine INISYM returns: Found  2 space group operations
 (whereof  1 operations are pure point group operations),
 and found     2 'primitive' translations

                                     Primitive cell

  volume of cell :     190.0601

  direct lattice vectors                    reciprocal lattice vectors
     1.916794120  1.917467270 -6.431375320     0.129956075  0.130001382 -0.077996935
     1.927411520  1.928089540  6.425036295     0.130084291  0.130129643  0.077567256
     3.845593080 -3.844252820  0.000000005     0.130064463 -0.130018764  0.000000012

  length of vectors
     6.979496324  6.979508280  5.437542265     0.199680902  0.199680560  0.183906617

  position of ions in fractional coordinates (direct lattice)
     0.286517890  0.286521450  0.161685070
     0.713455880  0.713477760  0.734739780
     0.786544130  0.786522250  0.234739790
     0.213482100  0.213478540  0.661685060
     0.500000270  0.499998200  0.448205800
     0.000000740  0.000002810  0.948205810
     0.348568920  0.651427560  0.948193220
     0.848574600  0.151426370  0.448193990
     0.651425400  0.348573630  0.948193990
     0.151431080  0.848572440  0.448193220
     0.841010050  0.158992510  0.948137970
     0.340998420  0.658974080  0.448127640
     0.159001580  0.841025920  0.948127640
     0.658989950  0.341007490  0.448137970

  ion indices of the primitive-cell ions
   primitive index   ion index
                 1           1
                 2           3
                 3           8
                 4           7
                 5           9
                 6          10
                 7          13
                 8          15
                 9          17
                10          19
                11          21
                12          22
                13          28
                14          27

 KPOINTS: # No comment

Automatic generation of k-mesh.
 Grid dimensions read from file:
 generate k-points for:    3    3    4

 Generating k-lattice:

  Cartesian coordinates                     Fractional coordinates (reciprocal lattice)
     0.043358126  0.000018480  0.012927878     0.333333333  0.000000000  0.000000000
     0.000003305  0.043358068  0.012927874    -0.000000000  0.333333333  0.000000000
     0.000032054  0.000032065  0.038891048     0.000000000  0.000000000  0.250000000

  Length of vectors
     0.045244419  0.045244359  0.038891074

  Shift w.r.t. Gamma in fractional coordinates (k-lattice)
     0.000000000  0.000000000  0.000000000

 Subroutine IBZKPT returns following result:

 Found     14 irreducible k-points:

 Following reciprocal coordinates:
            Coordinates               Weight
  0.000000  0.000000  0.000000      1.000000
  0.333333  0.000000  0.000000      4.000000
  0.333333  0.333333  0.000000      2.000000
 -0.333333  0.333333  0.000000      2.000000
  0.000000  0.000000  0.250000      2.000000
  0.333333  0.000000  0.250000      4.000000
 -0.333333  0.000000  0.250000      4.000000
  0.333333  0.333333  0.250000      2.000000
 -0.333333  0.333333  0.250000      4.000000
 -0.333333 -0.333333  0.250000      2.000000
  0.000000  0.000000  0.500000      1.000000
  0.333333  0.000000  0.500000      4.000000
  0.333333  0.333333  0.500000      2.000000
 -0.333333  0.333333  0.500000      2.000000

 Following cartesian coordinates:
            Coordinates               Weight
  0.000000  0.000000  0.000000      1.000000
  0.043358  0.000018  0.012928      4.000000
  0.043361  0.043377  0.025856      2.000000
 -0.043355  0.043340 -0.000000      2.000000
  0.000032  0.000032  0.038891      2.000000
  0.043390  0.000051  0.051819      4.000000
 -0.043326  0.000014  0.025963      4.000000
  0.043393  0.043409  0.064747      2.000000
 -0.043323  0.043372  0.038891      4.000000
 -0.043329 -0.043344  0.013035      2.000000
  0.000064  0.000064  0.077782      1.000000
  0.043422  0.000083  0.090710      4.000000
  0.043426  0.043441  0.103638      2.000000
 -0.043291  0.043404  0.077782      2.000000

 Subroutine IBZKPT_HF returns following result:

 Found     36 k-points in 1st BZ
 the following     36 k-points will be used (e.g. in the exchange kernel)
 Following reciprocal coordinates:   # in IRBZ
  0.000000  0.000000  0.000000    0.02777778   1 t-inv F
  0.333333  0.000000  0.000000    0.02777778   2 t-inv F
  0.333333  0.333333  0.000000    0.02777778   3 t-inv F
 -0.333333  0.333333  0.000000    0.02777778   4 t-inv F
  0.000000  0.000000  0.250000    0.02777778   5 t-inv F
  0.333333  0.000000  0.250000    0.02777778   6 t-inv F
 -0.333333  0.000000  0.250000    0.02777778   7 t-inv F
  0.333333  0.333333  0.250000    0.02777778   8 t-inv F
 -0.333333  0.333333  0.250000    0.02777778   9 t-inv F
 -0.333333 -0.333333  0.250000    0.02777778  10 t-inv F
  0.000000  0.000000  0.500000    0.02777778  11 t-inv F
  0.333333  0.000000  0.500000    0.02777778  12 t-inv F
  0.333333  0.333333  0.500000    0.02777778  13 t-inv F
 -0.333333  0.333333  0.500000    0.02777778  14 t-inv F
 -0.000000 -0.333333 -0.000000    0.02777778   2 t-inv F
 -0.333333 -0.333333 -0.000000    0.02777778   3 t-inv F
 -0.000000 -0.000000 -0.250000    0.02777778   5 t-inv F
 -0.000000 -0.333333 -0.250000    0.02777778   6 t-inv F
 -0.000000  0.333333 -0.250000    0.02777778   7 t-inv F
 -0.333333 -0.333333 -0.250000    0.02777778   8 t-inv F
 -0.333333  0.333333 -0.250000    0.02777778   9 t-inv F
[...]

[...]

 eigenvalue-minimisations  :     0
 total energy-change (2. order) :-0.1379186E-05  ( 0.4904286E-06)
 number of electron     208.0000069 magnetization      31.9999998
 augmentation part       71.7641630 magnetization      21.2478282

[...]

 d Force = 0.8205441E-07[ 0.829E-07, 0.812E-07]  d Energy = 0.2405083E-05-0.232E-05
 d Force = 0.7953870E-03[ 0.795E-03, 0.795E-03]  d Ewald  =-0.1497180E-01 0.158E-01

 writing wavefunctions

[...]

 eigenvalue-minimisations  :     0
 total energy-change (2. order) : 0.1164262E-01  (-0.8324523E-02)
 number of electron     208.0000075 magnetization      32.0000000
 augmentation part       71.7484134 magnetization      21.2532606

[...]

--------------------------------------- Iteration     10(   8)  ---------------------------------------

 eigenvalue-minimisations  :     0
 total energy-change (2. order) :-0.1468836E-04  (-0.6533044E-05)
 number of electron     208.0000075 magnetization      32.0000000
 augmentation part       71.7631656 magnetization      21.2504056

  free energy =  -0.214521772612E+03  energy without entropy=  -0.214521772612E+03

  average scaling for gradient   1.0440

 average (electrostatic) potential at core
  the test charge radii are     0.7079  0.7215  0.9698  0.9500
  (the norm of the test charge is              1.0000)
       1 -52.8206       2 -52.8212       3 -52.8212       4 -52.8206       5 -52.8212
       6 -52.8206       7 -52.8206       8 -52.8212       9 -63.1044      10 -63.1044
      11 -63.1044      12 -63.1044      13 -81.7897      14 -81.7896      15 -81.7896
      16 -81.7897      17 -81.7896      18 -81.7897      19 -81.7897      20 -81.7896
      21 -71.1757      22 -71.1758      23 -71.1758      24 -71.1757      25 -71.1758
      26 -71.1757      27 -71.1757      28 -71.1758

 E-fermi :   5.0196     XC(G=0):  -8.7238     alpha+bet :-12.7718

 Fermi energy:         5.0195751212

[...]

 k-point    14 :      -0.3333    0.3333    0.5000
  band No.  band energies     occupation
      1     -55.8581      1.00000
      2     -55.8580      1.00000
      3     -55.8580      1.00000
      4     -55.8574      1.00000
      5     -55.8574      1.00000
      6     -55.8570      1.00000
      7     -55.8570      1.00000
      8     -55.8570      1.00000
      9     -54.3041      1.00000
     10     -54.3039      1.00000
     11     -54.3038      1.00000
     12     -54.3037      1.00000
     13     -54.3035      1.00000
     14     -54.3031      1.00000
     15     -54.3030      1.00000
     16     -54.3026      1.00000
     17     -54.3026      1.00000
     18     -54.3025      1.00000
     19     -54.3024      1.00000
     20     -54.3021      1.00000
     21     -54.3017      1.00000
     22     -54.3016      1.00000
     23     -54.3015      1.00000
     24     -54.3015      1.00000
     25     -43.0670      1.00000
     26     -43.0578      1.00000
     27     -43.0577      1.00000
     28     -43.0521      1.00000
     29     -43.0385      1.00000
     30     -43.0343      1.00000
     31     -43.0343      1.00000
     32     -43.0265      1.00000
     33     -15.3609      1.00000
     34     -15.3337      1.00000
     35     -15.3336      1.00000
     36     -15.3054      1.00000
     37      -9.3174      1.00000
     38      -9.0010      1.00000
     39      -9.0006      1.00000
     40      -8.7103      1.00000
     41      -8.6858      1.00000
     42      -8.5859      1.00000
     43      -8.5587      1.00000
     44      -8.5584      1.00000
     45      -2.3514      1.00000
     46      -2.3514      1.00000
     47      -2.1376      1.00000
     48      -2.0878      1.00000
     49      -1.4939      1.00000
     50      -1.4574      1.00000
     51      -1.4574      1.00000
     52      -1.3085      1.00000
     53      -1.1998      1.00000
     54      -1.1996      1.00000
     55      -1.1783      1.00000
     56      -1.1530      1.00000
     57      -1.0914      1.00000
     58      -1.0502      1.00000
     59      -1.0500      1.00000
     60      -0.8451      1.00000
[...]
    146      13.7135      0.00000
    147      13.8602      0.00000
    148      13.8607      0.00000
    149      13.8648      0.00000
    150      14.1973      0.00000
    151      14.1975      0.00000
    152      14.2715      0.00000
    153      14.7687      0.00000
    154      14.8554      0.00000
    155      14.8557      0.00000
    156      15.0288      0.00000
    157      15.1587      0.00000
    158      15.6140      0.00000
    159      15.6151      0.00000
    160      15.6382      0.00000
 Fermi energy:         5.0195751212

 spin component 2

[...]

 k-point    14 :      -0.3333    0.3333    0.5000
  band No.  band energies     occupation
      1     -49.1992      1.00000
      2     -49.1983      1.00000
      3     -49.1983      1.00000
      4     -49.1977      1.00000
      5     -49.1964      1.00000
      6     -49.1961      1.00000
      7     -49.1961      1.00000
      8     -49.1954      1.00000
      9     -49.1607      1.00000
     10     -49.1602      1.00000
     11     -49.1601      1.00000
     12     -49.1598      1.00000
     13     -49.1588      1.00000
     14     -49.1583      1.00000
     15     -49.1580      1.00000
     16     -49.1576      1.00000
     17     -49.1572      1.00000
     18     -49.1571      1.00000
     19     -49.1569      1.00000
     20     -49.1566      1.00000
     21     -49.1561      1.00000
     22     -49.1560      1.00000
     23     -49.1556      1.00000
     24     -49.1554      1.00000
     25     -43.0678      1.00000
     26     -43.0587      1.00000
     27     -43.0586      1.00000
     28     -43.0531      1.00000
     29     -43.0397      1.00000
     30     -43.0355      1.00000
     31     -43.0355      1.00000
     32     -43.0278      1.00000
     33     -14.9542      1.00000
     34     -14.9269      1.00000
     35     -14.9268      1.00000
     36     -14.8988      1.00000
     37      -9.0222      1.00000
     38      -8.7030      1.00000
     39      -8.7026      1.00000
     40      -8.3854      1.00000
     41      -8.3432      1.00000
     42      -8.2465      1.00000
     43      -8.2336      1.00000
     44      -8.2332      1.00000
     45      -1.0950      1.00000
     46      -1.0950      1.00000
     47      -0.7061      1.00000
     48      -0.4892      1.00000
     49      -0.3085      1.00000
     50      -0.2246      1.00000
     51      -0.2245      1.00000
     52      -0.1787      1.00000
     53       0.1014      1.00000
     54       0.1830      1.00000
     55       0.1832      1.00000
     56       0.2780      1.00000
     57       0.7635      1.00000
     58       0.7636      1.00000
     59       0.8207      1.00000
     60       0.9025      1.00000
[...]
    146      14.3743      0.00000
    147      14.5360      0.00000
    148      14.5361      0.00000
    149      14.7062      0.00000
    150      14.7260      0.00000
    151      14.7265      0.00000
    152      15.1093      0.00000
    153      15.4049      0.00000
    154      15.5338      0.00000
    155      15.5345      0.00000
    156      15.5993      0.00000
    157      15.6519      0.00000
    158      16.0386      0.00000
    159      16.0399      0.00000
    160      16.0692      0.00000

[...]

 soft charge-density along one line, spin component           2
         0         1         2         3         4         5         6         7         8         9
 total charge-density along one line

------------------------ aborting loop because EDIFF is reached ----------------------------------------

[...]

  FORCE on cell =-STRESS in cart. coord.  units (eV):
  Direction    XX          YY          ZZ          XY          YZ          ZX
  Alpha Z   601.89119   601.89119   601.89119
  Ewald   -5951.22557 -5951.22977 -3614.68678    -0.02184     1.84319     1.84234
  Hartree  2078.95921  2078.95424  3514.22988    -0.01064     1.17806     1.17747
  E(xc)    -851.64802  -851.64797  -849.90045    -0.00001     0.00095     0.00095
  Local     442.61005   442.61935 -3143.35933     0.03268    -2.93921    -2.93767
  n-local   883.96846   886.45747   897.57650    -0.00060     0.03264     0.00224
  augment  1084.24838  1084.24610   974.38021    -0.00090    -0.04527    -0.04532
  Kinetic  2661.56074  2670.59638  2528.42191    -0.00262    -0.03042    -0.10496
  Fock     -956.24418  -956.01852  -908.54789     0.00296     0.00978     0.01072
  Total      -0.00565    -0.00565     0.00525     0.00123    -0.00210    -0.00210
  in kB      -0.02444    -0.02443     0.02269     0.00534    -0.00909    -0.00909

 VOLUME and BASIS-vectors are now :
  energy-cutoff  :      520.00
  volume of cell :      370.30
      direct lattice vectors                 reciprocal lattice vectors
     7.638525886  0.001357876 -0.006561232     0.130949049  0.000056301  0.039288254
    -0.001315609  7.638536599 -0.006561251     0.000010469  0.130948878  0.039288243
    -1.904281837 -1.904950564  6.349764127     0.000135321  0.000135368  0.157567358

  length of vectors
     7.638528825  7.638539531  6.897436512     0.136715850  0.136715671  0.157567475

 FORCES acting on ions:
    Electron-Ion                     Ewald-Force                    Non-Local-Force
   0.264E+00 -.140E+02 0.604E-01   -.252E+00 0.141E+02 -.587E-01   -.156E-01 -.841E-01 -.121E-02
   0.263E+00 0.140E+02 0.332E-01   -.251E+00 -.141E+02 -.319E-01   -.161E-01 0.835E-01 -.104E-02
   0.263E+00 0.140E+02 0.332E-01   -.251E+00 -.141E+02 -.319E-01   -.161E-01 0.835E-01 -.104E-02
   0.264E+00 -.140E+02 0.604E-01   -.252E+00 0.141E+02 -.587E-01   -.156E-01 -.841E-01 -.121E-02
   -.140E+02 -.268E+00 -.332E-01   0.141E+02 0.257E+00 0.319E-01   -.836E-01 0.161E-01 0.104E-02
   0.140E+02 -.258E+00 -.604E-01   -.141E+02 0.248E+00 0.587E-01   0.840E-01 0.156E-01 0.121E-02
   0.140E+02 -.258E+00 -.604E-01   -.141E+02 0.248E+00 0.587E-01   0.840E-01 0.156E-01 0.121E-02
   -.140E+02 -.268E+00 -.332E-01   0.141E+02 0.257E+00 0.319E-01   -.836E-01 0.161E-01 0.104E-02
   -.144E+00 0.234E+00 0.492E-02   0.159E+00 -.260E+00 -.542E-02   -.112E-01 0.198E-01 0.459E-03
   -.235E+00 0.144E+00 -.492E-02   0.261E+00 -.159E+00 0.542E-02   -.198E-01 0.112E-01 -.459E-03
   -.235E+00 0.144E+00 -.492E-02   0.261E+00 -.159E+00 0.542E-02   -.198E-01 0.112E-01 -.459E-03
   -.144E+00 0.234E+00 0.492E-02   0.159E+00 -.260E+00 -.542E-02   -.112E-01 0.198E-01 0.459E-03
   0.127E+00 0.535E-02 0.854E+02   -.128E+00 -.430E-02 -.858E+02   0.235E-02 0.181E-03 0.300E+00
   0.113E+00 0.253E-01 0.854E+02   -.113E+00 -.233E-01 -.858E+02   0.288E-03 -.160E-02 0.299E+00
   0.113E+00 0.253E-01 0.854E+02   -.113E+00 -.233E-01 -.858E+02   0.288E-03 -.160E-02 0.299E+00
   0.127E+00 0.536E-02 0.854E+02   -.128E+00 -.430E-02 -.858E+02   0.235E-02 0.181E-03 0.300E+00
   -.238E-01 -.111E+00 -.854E+02   0.233E-01 0.113E+00 0.858E+02   0.160E-02 -.288E-03 -.299E+00
   -.389E-02 -.126E+00 -.854E+02   0.431E-02 0.128E+00 0.858E+02   -.181E-03 -.235E-02 -.300E+00
   -.387E-02 -.126E+00 -.854E+02   0.431E-02 0.128E+00 0.858E+02   -.181E-03 -.235E-02 -.300E+00
   -.238E-01 -.111E+00 -.854E+02   0.233E-01 0.113E+00 0.858E+02   0.160E-02 -.288E-03 -.299E+00
   -.128E+00 0.435E-02 -.726E+02   0.129E+00 -.396E-02 0.711E+02   0.177E-02 -.294E-03 0.136E+01
   -.113E+00 0.389E-01 -.726E+02   0.111E+00 -.393E-01 0.711E+02   0.374E-02 0.330E-04 0.136E+01
   -.113E+00 0.389E-01 -.726E+02   0.111E+00 -.393E-01 0.711E+02   0.374E-02 0.330E-04 0.136E+01
   -.128E+00 0.436E-02 -.726E+02   0.129E+00 -.396E-02 0.711E+02   0.177E-02 -.294E-03 0.136E+01
   -.366E-01 0.115E+00 0.726E+02   0.390E-01 -.112E+00 -.711E+02   -.316E-04 -.374E-02 -.136E+01
   -.203E-02 0.130E+00 0.726E+02   0.366E-02 -.130E+00 -.711E+02   0.295E-03 -.177E-02 -.136E+01
   -.202E-02 0.130E+00 0.726E+02   0.366E-02 -.130E+00 -.711E+02   0.295E-03 -.177E-02 -.136E+01
   -.366E-01 0.115E+00 0.726E+02   0.390E-01 -.112E+00 -.711E+02   -.316E-04 -.374E-02 -.136E+01
   0.134E+00 -.944E-01 -.580E-04   -.320E-14 0.373E-13 -.142E-13   -.105E+00 0.105E+00 -.265E-09

 POSITION                                       TOTAL-FORCE (eV/Angst)
      1.71264      0.47667     -0.00128         0.003813     -0.007025      0.004606
      5.53070      7.56051     -0.01053         0.003942      0.022347      0.004979
      1.71210      3.74056     -0.00397         0.003942      0.022347      0.004979
      5.53124      4.29661     -0.00784         0.003813     -0.007025      0.004606
      1.99363      0.20226      6.34389        -0.022346     -0.003950     -0.004979
      5.25752      0.20287      6.34120         0.007027     -0.003811     -0.004606
      1.43760      4.02146      6.34120         0.007027     -0.003811     -0.004606
     -1.82629      4.02085      6.34389        -0.022346     -0.003950     -0.004979
      1.71699     -1.70639      6.34647         0.000261     -0.001760      0.000022
      7.44058      0.19929     -0.00655         0.001760     -0.000260     -0.000022
      3.62066      4.01788     -0.00655         0.001760     -0.000260     -0.000022
      5.53559      2.11356      6.33991         0.000261     -0.001760      0.000022
      1.71294      2.10933      1.92102         0.000457      0.000586     -0.020148
      5.53221      2.10998      1.91767        -0.000424     -0.000390     -0.021009
      1.71229      5.92857      1.91767        -0.000424     -0.000390     -0.021009
      5.53154      5.92927      1.91446         0.000457      0.000586     -0.020148
     -0.19437      0.20131      4.42225         0.000390      0.000424      0.021009
      3.62486      0.20200      4.41890        -0.000586     -0.000457      0.020148
     -0.19506      4.02059      4.41890        -0.000586     -0.000457      0.020148
      3.62423      4.02126      4.41569         0.000390      0.000424      0.021009
     -0.19642      0.19958      2.01166         0.001964     -0.001167     -0.002393
      3.62269      0.20029      2.00835         0.001124     -0.001451     -0.002508
     -0.19723      4.01888      2.00835         0.001124     -0.001451     -0.002508
      3.62219      4.01953      2.00510         0.001964     -0.001167     -0.002393
      1.71464      2.11150      4.33158         0.001451     -0.001123      0.002508
      5.53393      2.11202      4.32826         0.001168     -0.001964      0.002393
      1.71401      5.93061      4.32826         0.001168     -0.001964      0.002393
      5.53325      5.93145      4.32502         0.001451     -0.001123      0.002508
    total drift:                                0.022656      0.016433     -0.000058

  FREE ENERGIE OF THE ION-ELECTRON SYSTEM (eV)
  free  energy   TOTEN  =      -214.52177261 eV

  energy  without entropy=     -214.52177261  energy(sigma->0) =     -214.52177261

 d Force = 0.7597764E-03[ 0.492E-03, 0.103E-02]  d Energy = 0.7811583E-03-0.214E-04
 d Force = 0.8931271E+00[ 0.880E+00, 0.907E+00]  d Ewald  = 0.3606002E+01-0.271E+01

 Conjugate gradient step on ions:
 trial-energy change:   -0.000781  1 .order   -0.000792   -0.001089   -0.000496
  (g-gl).g = 0.118E-02      g.g   = 0.113E-02  gl.gl    = 0.221E+00
 g(Force)  = 0.107E-02   g(Stress)= 0.602E-04 ortho     =-0.473E-04
 gamma     =   0.00532
 trial     =   0.96539
 opt step  =   1.77146  (harmonic =   1.77146) maximal distance =0.00386031
 next E    =  -214.521991   (d E  =  -0.00100)

 reached required accuracy - stopping structural energy minimisation
 writing wavefunctions

 total charge

[...]

 magnetization (x)

# of ion       s       p       d       tot
    1       -0.000   0.000   0.000  -0.000
    2       -0.000   0.000   0.000  -0.000
    3       -0.000   0.000   0.000  -0.000
    4       -0.000   0.000   0.000  -0.000
    5       -0.000   0.000   0.000  -0.000
    6       -0.000   0.000   0.000  -0.000
    7       -0.000   0.000   0.000  -0.000
    8       -0.000   0.000   0.000  -0.000
    9        0.011   0.128   0.000   0.139
   10        0.011   0.128   0.000   0.139
   11        0.011   0.128   0.000   0.139
   12        0.011   0.128   0.000   0.139
   13        0.019   0.097   0.000   0.117
   14        0.019   0.097   0.000   0.117
   15        0.019   0.097   0.000   0.117
   16        0.019   0.097   0.000   0.117
   17        0.019   0.097   0.000   0.117
   18        0.019   0.097   0.000   0.117
   19        0.019   0.097   0.000   0.117
   20        0.019   0.097   0.000   0.117
   21        0.036   0.025   3.568   3.629
   22        0.036   0.025   3.568   3.629
   23        0.036   0.025   3.568   3.629
   24        0.036   0.025   3.568   3.629
   25        0.036   0.025   3.568   3.629
   26        0.036   0.025   3.568   3.629
   27        0.036   0.025   3.568   3.629
   28        0.036   0.025   3.568   3.629
tot          0.482   1.492  28.545  30.519