 vasp.6.2.0 18Jan21 (build Jan 29 2021 15:03:46) complex

 executed on             LinuxIFC date 2021.03.29  14:26:16

 INCAR:
   AEXX = 0.25
   ALGO = all
   EDIFF = 9e-06
   EDIFFG = -0.03
   ENCUT = 520
   GGA = pe
   HFSCREEN = 0.207
   IBRION = 2
   ISIF = 3
   ISMEAR = 0
   ISPIN = 2
   KPAR = 28
   LASPH = .TRUE.
   LHFCALC = .TRUE.
   LMAXFOCK = 4
   LORBIT = 11
   LREAL = .FALSE.
   LVHAR = .TRUE.
   LWAVE = .TRUE.
   MAGMOM = 0.6 0.6 0.6 0.6 0.6 0.6 5 5 5
   NCORE = 1
   NEDOS = 2000
   NELM = 200
   NELMIN = 4
   NSW = 60
   NWRITE = 1
   PREC = accurate
   PRECFOCK = fast
   SIGMA = 0.05
   TIME = 0.3

 POTCAR:    PAW_PBE Li_sv 10Sep2004
 POTCAR:    PAW_PBE O 08Apr2002
 POTCAR:    PAW_PBE S 06Sep2000
 POTCAR:    PAW_PBE Fe_pv 02Aug2007
|           W    W    AA    RRRRR   N    N  II  N    N   GGGG   !!!           |
|           W    W   A  A   R    R  NN   N  II  NN   N  G    G  !!!           |
|           W    W  A    A  R    R  N N  N  II  N N  N  G       !!!           |
|           W WW W  AAAAAA  RRRRR   N  N N  II  N  N N  G  GGG   !            |
|           WW  WW  A    A  R   R   N   NN  II  N   NN  G    G                |
|           W    W  A    A  R    R  N    N  II  N    N   GGGG   !!!           |
|     For optimal performance we recommend to set                             |
|       NCORE = 2 up to number-of-cores-per-socket                            |
|     This setting can greatly improve the performance of VASP for DFT.       |
|     The default, NCORE=1 might be grossly inefficient on modern             |
|     multi-core architectures or massively parallel machines. Do your        |
|     Unfortunately you need to use the default for GW and RPA                |
|     calculations (for HF NCORE is supported but not extensively tested      |
|     yet).                                                                   |

 POTCAR:    PAW_PBE Li_sv 10Sep2004

 POTCAR:    PAW_PBE O 08Apr2002

 POTCAR:    PAW_PBE S 06Sep2000

 POTCAR:    PAW_PBE Fe_pv 02Aug2007

  PAW_PBE Li_sv 10Sep2004               :
  PAW_PBE O 08Apr2002                   :
  PAW_PBE S 06Sep2000                   :
  PAW_PBE Fe_pv 02Aug2007               :

 POSCAR: # Compound: Li2O2S2Fe3. Old comment: LFS
  positions in direct lattice
 exchange correlation table for  LEXCH =        8
   RHO(1)=    0.500       N(1)  =     2000
   RHO(2)=  100.500       N(2)  =     4000

 ion  position               nearest neighbor table
   1  0.315  0.500  0.000-   3 1.99   4 1.99
   2  0.315  0.000  0.500-   3 1.99   4 1.99
   3  0.318  0.251  0.749-   2 1.99   1 1.99   8 2.00   8 2.00   9 2.02
   4  0.318  0.749  0.251-   2 1.99   1 1.99   7 2.00   7 2.00   9 2.02
   5  0.818  0.236  0.236-   7 2.54   8 2.54   9 2.67   9 2.69
   6  0.818  0.764  0.764-   8 2.54   7 2.54   9 2.67   9 2.69
   7  0.819  0.678  0.322-   4 2.00   4 2.00   5 2.54   6 2.54
   8  0.819  0.322  0.678-   3 2.00   3 2.00   6 2.54   5 2.54
   9  0.322  0.000  0.000-   3 2.02   4 2.02   5 2.67   6 2.67   5 2.69   6 2.69

  LATTYP: Found a base centered orthorhombic cell.
 ALAT       =     7.9488661091
 B/A-ratio  =     1.0152447194
 C/A-ratio  =     0.4826838743

  Lattice vectors:

 A1 = (   0.0000000000,   5.6633545800,   0.0627447000)
 A2 = (   0.0000000000,  -0.1484157600,   5.6617572200)
 A3 = (   3.8367894900,   0.0000000000,   0.0000000000)

Analysis of symmetry for initial positions (statically):
 Subroutine PRICEL returns:
 Original cell was already a primitive cell.

 Routine SETGRP: Setting up the symmetry group for a
 base centered orthorhombic supercell.

 Subroutine GETGRP returns: Found  4 space group operations
 (whereof  4 operations were pure point group operations)
 out of a pool of  8 trial point group operations.

The static configuration has the point symmetry C_2v.

Analysis of symmetry for dynamics (positions and initial velocities):
 Subroutine PRICEL returns:
 Original cell was already a primitive cell.

[...]

The dynamic configuration has the point symmetry C_2v.

Analysis of structural, dynamic, and magnetic symmetry:
 Subroutine PRICEL returns:
 Original cell was already a primitive cell.

 Routine SETGRP: Setting up the symmetry group for a
 base centered orthorhombic supercell.

 Subroutine GETGRP returns: Found  4 space group operations
 (whereof  4 operations were pure point group operations)
 out of a pool of  8 trial point group operations.

The overall configuration has the point symmetry C_2v.

 Subroutine INISYM returns: Found  4 space group operations
 (whereof  4 operations are pure point group operations),
 and found     1 'primitive' translations

                                     Primitive cell

  volume of cell :     123.0606

  direct lattice vectors                    reciprocal lattice vectors
     3.836789490  0.000000000  0.000000000     0.260634575  0.000000000  0.000000000
     0.000000000  5.663354580  0.062744700     0.000000000  0.176522527  0.004627313
     0.000000000 -0.148415760  5.661757220     0.000000000 -0.001956257  0.176572329

  length of vectors
     3.836789490  5.663702146  5.663702151     0.260634575  0.176583166  0.176583166

  position of ions in fractional coordinates (direct lattice)
     0.315398840  0.500000000  0.000000000
     0.315398840  0.000000000  0.500000000
     0.318447170  0.250553250  0.749446750
     0.318447170  0.749446750  0.250553250
     0.818396530  0.236189430  0.236189430
     0.818396530  0.763810570  0.763810570
     0.818614530  0.678148540  0.321851460
     0.818614530  0.321851460  0.678148540
     0.321933870  0.000000000  0.000000000

  ion indices of the primitive-cell ions
   primitive index   ion index
                 1           1
                 2           2
                 3           3
                 4           4
                 5           5
                 6           6
                 7           7
                 8           8
                 9           9

 KPOINTS: # No comment

Automatic generation of k-mesh.
 Grid dimensions read from file:
 generate k-points for:    6    4    4

 Generating k-lattice:

  Cartesian coordinates                     Fractional coordinates (reciprocal lattice)
     0.043439096  0.000000000  0.000000000     0.166666667  0.000000000  0.000000000
     0.000000000  0.044130632  0.001156828     0.000000000  0.250000000  0.000000000
     0.000000000 -0.000489064  0.044143082     0.000000000  0.000000000  0.250000000

  Length of vectors
     0.043439096  0.044145791  0.044145791

  Shift w.r.t. Gamma in fractional coordinates (k-lattice)
     0.000000000  0.000000000  0.000000000

 Subroutine IBZKPT returns following result:

 Found     28 irreducible k-points:

 Following reciprocal coordinates:
            Coordinates               Weight
  0.000000  0.000000  0.000000      1.000000
  0.166667  0.000000  0.000000      2.000000
  0.333333  0.000000  0.000000      2.000000
  0.500000  0.000000  0.000000      1.000000
  0.000000  0.250000  0.000000      4.000000
  0.166667  0.250000  0.000000      8.000000
  0.333333  0.250000  0.000000      8.000000
  0.500000  0.250000  0.000000      4.000000
  0.000000  0.500000  0.000000      2.000000
  0.166667  0.500000  0.000000      4.000000
  0.333333  0.500000  0.000000      4.000000
  0.500000  0.500000  0.000000      2.000000
  0.000000  0.250000  0.250000      2.000000
  0.166667  0.250000  0.250000      4.000000
  0.333333  0.250000  0.250000      4.000000
  0.500000  0.250000  0.250000      2.000000
  0.000000  0.500000  0.250000      4.000000
  0.166667  0.500000  0.250000      8.000000
  0.333333  0.500000  0.250000      8.000000
  0.500000  0.500000  0.250000      4.000000
  0.000000 -0.250000  0.250000      2.000000
  0.166667 -0.250000  0.250000      4.000000
  0.333333 -0.250000  0.250000      4.000000
  0.500000 -0.250000  0.250000      2.000000
  0.000000  0.500000  0.500000      1.000000
  0.166667  0.500000  0.500000      2.000000
  0.333333  0.500000  0.500000      2.000000
  0.500000  0.500000  0.500000      1.000000

 Following cartesian coordinates:
            Coordinates               Weight
  0.000000  0.000000  0.000000      1.000000
  0.043439  0.000000  0.000000      2.000000
  0.086878  0.000000  0.000000      2.000000
  0.130317  0.000000  0.000000      1.000000
  0.000000  0.044131  0.001157      4.000000
  0.043439  0.044131  0.001157      8.000000
  0.086878  0.044131  0.001157      8.000000
  0.130317  0.044131  0.001157      4.000000
  0.000000  0.088261  0.002314      2.000000
  0.043439  0.088261  0.002314      4.000000
  0.086878  0.088261  0.002314      4.000000
  0.130317  0.088261  0.002314      2.000000
  0.000000  0.043642  0.045300      2.000000
  0.043439  0.043642  0.045300      4.000000
  0.086878  0.043642  0.045300      4.000000
  0.130317  0.043642  0.045300      2.000000
  0.000000  0.087772  0.046457      4.000000
  0.043439  0.087772  0.046457      8.000000
  0.086878  0.087772  0.046457      8.000000
  0.130317  0.087772  0.046457      4.000000
  0.000000 -0.044620  0.042986      2.000000
  0.043439 -0.044620  0.042986      4.000000
  0.086878 -0.044620  0.042986      4.000000
  0.130317 -0.044620  0.042986      2.000000
  0.000000  0.087283  0.090600      1.000000
  0.043439  0.087283  0.090600      2.000000
  0.086878  0.087283  0.090600      2.000000
  0.130317  0.087283  0.090600      1.000000

 Subroutine IBZKPT_HF returns following result:

 Found     96 k-points in 1st BZ
 the following     96 k-points will be used (e.g. in the exchange kernel)
 Following reciprocal coordinates:   # in IRBZ
  0.000000  0.000000  0.000000    0.01041667   1 t-inv F
  0.166667  0.000000  0.000000    0.01041667   2 t-inv F
  0.333333  0.000000  0.000000    0.01041667   3 t-inv F
  0.500000  0.000000  0.000000    0.01041667   4 t-inv F
  0.000000  0.250000  0.000000    0.01041667   5 t-inv F
  0.166667  0.250000  0.000000    0.01041667   6 t-inv F
  0.333333  0.250000  0.000000    0.01041667   7 t-inv F
  0.500000  0.250000  0.000000    0.01041667   8 t-inv F
  0.000000  0.500000  0.000000    0.01041667   9 t-inv F
  0.166667  0.500000  0.000000    0.01041667  10 t-inv F
  0.333333  0.500000  0.000000    0.01041667  11 t-inv F
  0.500000  0.500000  0.000000    0.01041667  12 t-inv F
  0.000000  0.250000  0.250000    0.01041667  13 t-inv F
  0.166667  0.250000  0.250000    0.01041667  14 t-inv F
  0.333333  0.250000  0.250000    0.01041667  15 t-inv F
  0.500000  0.250000  0.250000    0.01041667  16 t-inv F
  0.000000  0.500000  0.250000    0.01041667  17 t-inv F
  0.166667  0.500000  0.250000    0.01041667  18 t-inv F
  0.333333  0.500000  0.250000    0.01041667  19 t-inv F
  0.500000  0.500000  0.250000    0.01041667  20 t-inv F
  0.000000 -0.250000  0.250000    0.01041667  21 t-inv F
  0.166667 -0.250000  0.250000    0.01041667  22 t-inv F
  0.333333 -0.250000  0.250000    0.01041667  23 t-inv F
  0.500000 -0.250000  0.250000    0.01041667  24 t-inv F
  0.000000  0.500000  0.500000    0.01041667  25 t-inv F
  0.166667  0.500000  0.500000    0.01041667  26 t-inv F
  0.333333  0.500000  0.500000    0.01041667  27 t-inv F
  0.500000  0.500000  0.500000    0.01041667  28 t-inv F
[...]
  band No.  band energies     occupation
      1     -56.4047      1.00000
      2     -56.4029      1.00000
      3     -56.0975      1.00000
      4     -55.1239      1.00000
      5     -55.1213      1.00000
      6     -54.7964      1.00000
      7     -54.7692      1.00000
      8     -54.6626      1.00000
      9     -54.5270      1.00000
     10     -43.8132      1.00000
     11     -43.8131      1.00000
     12     -16.0903      1.00000
     13     -15.8969      1.00000
     14      -8.8202      1.00000
     15      -8.8042      1.00000
     16      -3.3450      1.00000
     17      -3.0675      1.00000
     18      -2.6393      1.00000
     19      -2.4079      1.00000
     20      -2.2264      1.00000
     21      -1.7353      1.00000
     22      -1.6793      1.00000
     23      -1.4253      1.00000
     24      -1.3264      1.00000
     25      -0.9732      1.00000
     26      -0.6335      1.00000
     27      -0.5662      1.00000
     28      -0.2179      1.00000
     29      -0.1939      1.00000
     30       0.1394      1.00000
     31       0.5863      1.00000
     32       0.5942      1.00000
     33       0.7733      1.00000
     34       1.2672      1.00000
     35       1.3154      1.00000
     36       1.6027      1.00000
     37       2.0987      1.00000
     38       3.2631      1.00000
     39       3.2811      1.00000
     40       3.6310      1.00000
     41       3.8324      1.00000
     42       4.0732      1.00000
     43       8.6515      0.00000
     44       8.9391      0.00000
     45       9.0520      0.00000
     46      10.0796      0.00000
     47      11.4734      0.00000
     48      11.8944      0.00000
     49      12.6892      0.00000
     50      12.9303      0.00000
     51      13.9826      0.00000
     52      14.1840      0.00000
 Fermi energy:         4.8994748091

[...]

 soft charge-density along one line, spin component           1
         0         1         2         3         4         5         6         7         8         9
 total charge-density along one line

[...]

------------------------ aborting loop because EDIFF is reached ----------------------------------------

 total charge

# of ion       s       p       d       tot
    1        2.018   0.059   0.000   2.077
    2        2.018   0.059   0.000   2.077
    3        1.554   3.525   0.000   5.078
    4        1.554   3.525   0.000   5.078
    5        1.309   2.435   0.000   3.743
    6        1.309   2.435   0.000   3.743
    7        0.251   6.240   5.892  12.383
    8        0.251   6.240   5.892  12.383
    9        0.239   6.227   5.902  12.369
tot         10.502  30.743  17.686  58.931

 magnetization (x)

[...]

  FORCE on cell =-STRESS in cart. coord.  units (eV):
  Direction    XX          YY          ZZ          XY          YZ          ZX
  Alpha Z   222.66639   222.66639   222.66639
  Ewald   -1430.99081 -2000.72551 -2033.98328     0.00000  -445.77121     0.00000
  Hartree  1294.84746   862.38788   834.50000    -0.00000  -373.80271    -0.00001
  E(xc)    -303.15454  -303.54977  -303.55010    -0.00000    -0.00446    -0.00000
  Local   -1004.87675   -30.21624    30.64674    -0.00001   815.79569    -0.00000
  n-local   286.67455   284.83672   285.67355    -0.11301    -2.58865    -0.25324
  augment   386.11181   404.28768   404.53231    -0.00000     3.27101    -0.00000
  Kinetic   904.47952   924.09262   925.48952    -0.73551     4.57105    -1.46027
  Fock     -358.99120  -366.99966  -366.95515    -0.00264    -1.32320    -0.00488
  Total      -3.23358    -2.10685    -2.09307     0.00000     0.18475     0.00000
  in kB     -42.09932   -27.42998   -27.25052     0.00000     2.40539     0.00000

 VOLUME and BASIS-vectors are now :
  energy-cutoff  :      520.00
  volume of cell :      123.06
      direct lattice vectors                 reciprocal lattice vectors
     3.836789490  0.000000000  0.000000000     0.260634575  0.000000000  0.000000000
     0.000000000  5.663354580  0.062744700     0.000000000  0.176522527  0.004627313
     0.000000000 -0.148415760  5.661757220     0.000000000 -0.001956257  0.176572329

[...]

 FORCES acting on ions:
    Electron-Ion                     Ewald-Force                    Non-Local-Force
   -.264E+00 0.736E-05 -.367E-04   0.271E+00 0.139E-13 0.380E-16   0.111E-01 -.441E-20 -.547E-20
   -.264E+00 -.196E-04 0.581E-05   0.271E+00 -.709E-14 -.794E-14   0.111E-01 0.468E-20 0.263E-20
   0.400E+00 -.621E+02 0.599E+02   -.387E+00 0.650E+02 -.626E+02   -.117E-01 -.252E+01 0.243E+01
   0.400E+00 0.621E+02 -.599E+02   -.387E+00 -.650E+02 0.626E+02   -.117E-01 0.252E+01 -.243E+01
   -.836E+00 -.263E+01 -.273E+01   0.867E+00 0.161E+01 0.167E+01   -.141E-01 0.992E+00 0.103E+01
   -.836E+00 0.263E+01 0.273E+01   0.867E+00 -.161E+01 -.167E+01   -.141E-01 -.992E+00 -.103E+01
   0.236E+00 0.639E+02 -.616E+02   -.265E+00 -.649E+02 0.626E+02   0.443E-02 0.994E+00 -.957E+00
   0.236E+00 -.639E+02 0.616E+02   -.265E+00 0.649E+02 -.626E+02   0.443E-02 -.994E+00 0.957E+00
   0.103E+01 -.189E-04 -.455E-04   -.973E+00 -.195E-15 -.284E-13   -.752E-01 0.324E-19 0.584E-19
   0.969E-01 -.377E-04 0.305E-04   -.766E-14 -.195E-15 0.213E-13   -.958E-01 0.111E-15 0.111E-15

 POSITION                                       TOTAL-FORCE (eV/Angst)
      1.21012      2.83168      0.03137         0.017051     -0.000000     -0.000000
      1.21012     -0.07421      2.83088         0.017051     -0.000000     -0.000000
      1.22181      1.30774      4.25891        -0.000203     -0.086092      0.082940
      1.22181      4.20720      1.46560        -0.000203      0.086092     -0.082940
      3.14002      1.30257      1.35207         0.016188      0.041929      0.043522
      3.14002      4.21237      4.37244         0.016188     -0.041929     -0.043522
      3.14085      3.79283      1.86480        -0.019726      0.057697     -0.055584
      3.14085      1.72211      3.85971        -0.019726     -0.057697      0.055584
      1.23519      0.00000      0.00000        -0.026619     -0.000000     -0.000000
    total drift:                               -0.004469     -0.000038      0.000031

  FREE ENERGIE OF THE ION-ELECTRON SYSTEM (eV)
  free  energy   TOTEN  =       -75.44323379 eV

  energy  without entropy=      -75.44323379  energy(sigma->0) =      -75.44323379

 writing wavefunctions

[...]

  free energy =  -0.740596691687E+02  energy without entropy=  -0.740596691687E+02

[...]

 d Force = 0.1092951E-02[-0.259E-03, 0.245E-02]  d Energy = 0.4160161E-01-0.405E-01
 d Force =-0.1743077E+01[-0.179E+01,-0.170E+01]  d Ewald  = 0.6843435E+02-0.702E+02

 Steepest descent step on ions:
 trial-energy change:   -0.041602  1 .order   -0.040376   -0.106166    0.025414
  (g-gl).g = 0.106E+00      g.g   = 0.106E+00  gl.gl    = 0.000E+00
 g(Force)  = 0.248E-02   g(Stress)= 0.104E+00 ortho     = 0.000E+00
 gamma     =   0.00000
 trial     =   1.00000
 opt step  =   0.81527  (harmonic =   0.80685) maximal distance =0.00338608
 next E    =   -75.487175   (d E  =  -0.04394)

 writing wavefunctions

[...]

 eigenvalue-minimisations  :     0
 total energy-change (2. order) : 0.4795225E-01  (-0.3277437E-01)
 number of electron      72.0000049 magnetization      12.0000027
 augmentation part       27.1344512 magnetization       8.0393839

[...]

--------------------------------------- Iteration      3(  11)  ---------------------------------------

 eigenvalue-minimisations  :     0
 total energy-change (2. order) :-0.5566549E-05  (-0.2561615E-05)
 number of electron      72.0000049 magnetization      12.0000027
 augmentation part       27.1081460 magnetization       8.0599995

  free energy =  -0.754872346384E+02  energy without entropy=  -0.754872346384E+02

  average scaling for gradient   0.6687

 average (electrostatic) potential at core
  the test charge radii are     0.7079  0.7215  0.9698  0.9500
  (the norm of the test charge is              1.0000)
       1 -53.2788       2 -53.2788       3 -63.7054       4 -63.7054       5 -81.8990
       6 -81.8989       7 -71.4181       8 -71.4181       9 -71.0573

 E-fermi :   5.2733     XC(G=0):  -8.7090     alpha+bet :-12.2305

 Fermi energy:         5.2733401770

[...]

 k-point    28 :       0.5000    0.5000    0.5000
  band No.  band energies     occupation
      1     -56.0373      1.00000
      2     -56.0353      1.00000
      3     -55.7277      1.00000
      4     -54.7593      1.00000
      5     -54.7564      1.00000
      6     -54.4433      1.00000
      7     -54.4134      1.00000
      8     -54.3033      1.00000
      9     -54.1600      1.00000
     10     -43.4925      1.00000
     11     -43.4924      1.00000
     12     -15.9737      1.00000
     13     -15.7609      1.00000
     14      -8.6030      1.00000
     15      -8.5765      1.00000
     16      -3.2354      1.00000
     17      -2.9406      1.00000
     18      -2.5092      1.00000
     19      -2.2471      1.00000
     20      -2.0603      1.00000
     21      -1.5018      1.00000
     22      -1.4556      1.00000
     23      -1.1745      1.00000
     24      -1.0682      1.00000
     25      -0.7250      1.00000
     26      -0.2869      1.00000
     27      -0.2534      1.00000
     28       0.1021      1.00000
     29       0.1187      1.00000
     30       0.4992      1.00000
     31       0.8718      1.00000
     32       0.9338      1.00000
     33       1.0944      1.00000
     34       1.6469      1.00000
     35       1.6887      1.00000
     36       1.9637      1.00000
     37       2.3435      1.00000
     38       3.5856      1.00000
     39       3.6569      1.00000
     40       3.9970      1.00000
     41       4.2277      1.00000
     42       4.4671      1.00000
     43       9.0560      0.00000
     44       9.3377      0.00000
     45       9.4202      0.00000
     46      10.4708      0.00000
     47      11.8175      0.00000
     48      12.2090      0.00000
     49      13.0176      0.00000
     50      13.3065      0.00000
     51      14.5915      0.00000
     52      14.8158      0.00000
 Fermi energy:         5.2733401770

 spin component 2

[...]

 k-point    28 :       0.5000    0.5000    0.5000
  band No.  band energies     occupation
      1     -49.4578      1.00000
      2     -49.4532      1.00000
      3     -49.4217      1.00000
      4     -49.3836      1.00000
      5     -49.3822      1.00000
      6     -49.3811      1.00000
      7     -49.0616      1.00000
      8     -49.0326      1.00000
      9     -49.0220      1.00000
     10     -43.4991      1.00000
     11     -43.4988      1.00000
     12     -15.4719      1.00000
     13     -15.2664      1.00000
     14      -8.2623      1.00000
     15      -8.2546      1.00000
     16      -2.1217      1.00000
     17      -1.9554      1.00000
     18      -1.4448      1.00000
     19      -0.7816      1.00000
     20      -0.0946      1.00000
     21       0.6436      1.00000
     22       0.9375      1.00000
     23       1.0171      1.00000
     24       1.5805      1.00000
     25       2.0496      1.00000
     26       2.6845      1.00000
     27       2.9296      1.00000
     28       3.3869      1.00000
     29       4.0810      1.00000
     30       4.2897      1.00000
     31       7.3953      0.00000
     32       7.5811      0.00000
     33       7.7759      0.00000
     34       8.3346      0.00000
     35       8.5311      0.00000
     36       8.7494      0.00000
     37       9.1246      0.00000
     38       9.1582      0.00000
     39       9.1825      0.00000
     40       9.5020      0.00000
     41       9.7693      0.00000
     42       9.9510      0.00000
     43       9.9652      0.00000
     44      10.6994      0.00000
     45      11.1916      0.00000
     46      11.6807      0.00000
     47      12.5867      0.00000
     48      13.2699      0.00000
     49      13.8435      0.00000
     50      14.6322      0.00000
     51      15.4697      0.00000
     52      16.1433      0.00000

[...]

 soft charge-density along one line, spin component           2
         0         1         2         3         4         5         6         7         8         9
 total charge-density along one line

------------------------ aborting loop because EDIFF is reached ----------------------------------------

[...]

  FORCE on cell =-STRESS in cart. coord.  units (eV):
  Direction    XX          YY          ZZ          XY          YZ          ZX
  Alpha Z   230.06134   230.06134   230.06134
  Ewald   -1434.10613 -2026.60978 -2060.65585     0.00000  -456.33715     0.00000
  Hartree  1294.53810   848.83613   820.47799     0.00000  -380.10595    -0.00000
  E(xc)    -303.53560  -303.94248  -303.94317     0.00000    -0.00922    -0.00000
  Local   -1009.56205     0.99849    63.10390    -0.00001   832.44904    -0.00000
  n-local   287.38093   285.13259   285.94085    -0.11529    -2.68172    -0.26291
  augment   386.09494   404.07154   404.31820    -0.00000     3.29824     0.00000
  Kinetic   908.04801   927.40200   928.68194    -0.73726     4.74942    -1.47169
  Fock     -359.01713  -366.91759  -366.86812    -0.00323    -1.31132    -0.00639
  Total      -0.09760     0.07149     0.07782     0.00000     0.08475     0.00000
  in kB      -1.31290     0.96173     1.04679     0.00000     1.14002     0.00000

 VOLUME and BASIS-vectors are now :
  energy-cutoff  :      520.00
  volume of cell :      119.11
      direct lattice vectors                 reciprocal lattice vectors
     3.782571595  0.000000000  0.000000000     0.264370409  0.000000000  0.000000000
     0.000000000  5.611261899  0.066743328     0.000000000  0.178159212  0.004524857
     0.000000000 -0.142478016  5.609849805     0.000000000 -0.002119654  0.178204057

  length of vectors
     3.782571595  5.611658825  5.611658830     0.264370409  0.178216663  0.178216663

 FORCES acting on ions:
    Electron-Ion                     Ewald-Force                    Non-Local-Force
   -.235E+00 0.532E-06 -.311E-05   0.238E+00 -.197E-13 -.142E-13   0.136E-01 0.875E-21 -.981E-20
   -.235E+00 -.386E-05 0.794E-06   0.238E+00 0.142E-13 -.154E-13   0.136E-01 -.342E-20 -.234E-21
   0.740E+00 -.634E+02 0.611E+02   -.761E+00 0.662E+02 -.638E+02   0.134E-01 -.244E+01 0.235E+01
   0.740E+00 0.634E+02 -.611E+02   -.761E+00 -.662E+02 0.638E+02   0.134E-01 0.244E+01 -.235E+01
   -.778E+00 -.403E+01 -.418E+01   0.808E+00 0.302E+01 0.313E+01   -.157E-01 0.951E+00 0.987E+00
   -.778E+00 0.403E+01 0.418E+01   0.808E+00 -.302E+01 -.313E+01   -.157E-01 -.951E+00 -.987E+00
   -.186E+00 0.697E+02 -.672E+02   0.142E+00 -.707E+02 0.682E+02   0.262E-01 0.901E+00 -.868E+00
   -.186E+00 -.697E+02 0.672E+02   0.142E+00 0.707E+02 -.682E+02   0.262E-01 -.901E+00 0.868E+00
   0.895E+00 -.229E-05 -.213E-05   -.856E+00 -.114E-12 0.571E-13   -.626E-01 -.354E-20 0.247E-19
   -.234E-01 -.369E-05 0.804E-05   -.211E-14 -.141E-13 -.140E-13   0.123E-01 0.555E-15 -.444E-15

 POSITION                                       TOTAL-FORCE (eV/Angst)
      1.19368      2.80563      0.03337         0.016330      0.000000     -0.000000
      1.19368     -0.07124      2.80492         0.016330      0.000000     -0.000000
      1.20454      1.29580      4.22423        -0.005802      0.006151     -0.005925
      1.20454      4.17299      1.45237        -0.005802     -0.006151      0.005925
      3.09627      1.29330      1.34244         0.013638      0.005527      0.005737
      3.09627      4.17548      4.33415         0.013638     -0.005527     -0.005737
      3.09571      3.76165      1.84864        -0.011677      0.013350     -0.012861
      3.09571      1.70713      3.82795        -0.011677     -0.013350      0.012861
      1.21671     -0.00000     -0.00000        -0.024978      0.000000     -0.000000
    total drift:                               -0.005197     -0.000004      0.000008

  FREE ENERGIE OF THE ION-ELECTRON SYSTEM (eV)
  free  energy   TOTEN  =       -75.48723464 eV

  energy  without entropy=      -75.48723464  energy(sigma->0) =      -75.48723464

 d Force = 0.6309089E-05[-0.359E-04, 0.485E-04]  d Energy = 0.2399239E-02-0.239E-02
 d Force = 0.3334171E+00[ 0.332E+00, 0.335E+00]  d Ewald  =-0.1276224E+02 0.131E+02

 reached required accuracy - stopping structural energy minimisation
 writing wavefunctions

 total charge

[...]

 magnetization (x)

# of ion       s       p       d       tot
    1       -0.001  -0.001   0.000  -0.002
    2       -0.001  -0.001   0.000  -0.002
    3        0.013   0.148   0.000   0.161
    4        0.013   0.148   0.000   0.161
    5        0.022   0.111   0.000   0.132
    6        0.022   0.111   0.000   0.132
    7        0.034   0.036   3.563   3.633
    8        0.034   0.036   3.563   3.633
    9        0.035   0.023   3.583   3.640
tot          0.169   0.610  10.709  11.489