 vasp.6.2.0 18Jan21 (build Feb  9 2021 11:43:09) complex
 executed on       CrayXC_GCC_OMP date 2021.05.09  14:05:25

 INCAR:
   ALGO = all
   EDIFF = 9.5e-05
   EDIFFG = -0.03
   ENCUT = 520
   GGA = pe
   IBRION = 2
   ISIF = 2
   ISMEAR = 0
   ISPIN = 2
   KPAR = 8
   LASPH = .TRUE.
   LDAU = .TRUE.
   LDAUJ = 0.0 0.0 0.0 0.0
   LDAUL = 2 -1 -1 -1
   LDAUTYPE = 2
   LDAUU = 4.0 0.0 0.0 0.0
   LMAXMIX = 4
   LORBIT = 10
   LREAL = .FALSE.
   LVHAR = .TRUE.
   LWAVE = .FALSE.
   MAGMOM = 5 5 5 5 5 5 5 5 5 5 5 5 5 5 5 5 5 5 5 5 5 5 5 5 0.6 0.6 0.6 0.6 0.6 0.6 0.6 0.6 0.6 0.6 0.6 0.6 0.6 0.6 0.6 0.6 0.6 0.6 0.6 0.6 0.6 0.6 0.6 0.6 0.6 0.6 0.6 0.6 0.6 0.6 0.6 0.6 0.6 0.6 0.6 0.6 0.6 0.6 0.6 0.6 0.6 0.6 0.6 0.6 0.6 0.6 0.6 0.6 0.6 0.6 0.6 0.6 0.6 0.6 0.6 0.6 0.6 0.6 0.6 0.6 0.6 0.6 0.6 0.6 0.6 0.6 0.6 0.6 0.6 0.6 0.6
   NCORE = 4
   NEDOS = 2000
   NELECT = 668
   NELM = 200
   NELMIN = 4
   NSW = 60
   NWRITE = 1
   PREC = accurate
   SIGMA = 0.05

 POTCAR:    PAW_PBE Fe_pv 02Aug2007
 POTCAR:    PAW_PBE Li_sv 10Sep2004
 POTCAR:    PAW_PBE O 08Apr2002
 POTCAR:    PAW_PBE S 06Sep2000
 POTCAR:    PAW_PBE Fe_pv 02Aug2007

 POTCAR:    PAW_PBE Li_sv 10Sep2004

 POTCAR:    PAW_PBE O 08Apr2002

 POTCAR:    PAW_PBE S 06Sep2000

  PAW_PBE Fe_pv 02Aug2007               :
  PAW_PBE Li_sv 10Sep2004               :
  PAW_PBE O 08Apr2002                   :
  PAW_PBE S 06Sep2000                   :

 POSCAR: # Compound: Fe24Li31O16S24. Old comment:
  positions in direct lattice
 exchange correlation table for  LEXCH =        8
   RHO(1)=    0.500       N(1)  =     2000
   RHO(2)=  100.500       N(2)  =     4000

 ion  position               nearest neighbor table
   1  0.266  0.667  0.602-  57 2.12  75 2.40  88 2.60  94 2.60
   2  0.230  0.335  0.398-  59 2.13  77 2.40  74 2.55  92 2.62
   3  0.119  0.324  0.789-  56 1.99  68 2.05  76 2.57  77 2.63
   4  0.375  0.579  0.817-  69 2.02  57 2.02  77 2.61  88 2.63  84 2.69  73 2.71
   5  0.877  0.176  0.197-  58 2.01  62 2.01  74 2.62  87 2.69  72 2.74
   6  0.123  0.419  0.183-  63 2.02  59 2.02  74 2.57  75 2.66  72 2.69  73 2.70
   7  0.015  0.913  0.602-  61 2.13  81 2.41  76 2.58  94 2.62
   8  0.985  0.579  0.399-  63 2.13  83 2.40  74 2.54  80 2.61
   9  0.877  0.568  0.789-  56 1.98  60 2.05  82 2.57  83 2.62
  10  0.125  0.829  0.817-  61 2.02  57 2.02  83 2.61  94 2.63  90 2.69  79 2.71
  11  0.627  0.426  0.200-  62 2.02  66 2.03  80 2.62  93 2.65  78 2.73
  12  0.874  0.671  0.187-  63 2.02  67 2.02  80 2.61  81 2.61  78 2.71  79 2.72
  13  0.771  0.172  0.601-  65 2.12  87 2.40  82 2.57  76 2.57
  14  0.736  0.835  0.399-  67 2.12  89 2.40  86 2.62  80 2.63
  15  0.625  0.824  0.803-  64 2.03  60 2.04  88 2.63  89 2.64  84 2.77  85 2.79
  16  0.876  0.078  0.813-  61 2.03  65 2.03  76 2.57  89 2.62  72 2.68  85 2.73
  17  0.375  0.674  0.197-  70 2.03  66 2.03  86 2.65  75 2.66  73 2.71
  18  0.624  0.920  0.184-  67 2.02  71 2.03  86 2.62  87 2.64  84 2.67  85 2.70
  19  0.512  0.414  0.602-  69 2.14  93 2.42  82 2.58  88 2.63
  20  0.485  0.085  0.399-  71 2.12  95 2.40  86 2.62  92 2.62
  21  0.373  0.076  0.803-  64 2.04  68 2.04  94 2.63  95 2.65  90 2.76  91 2.78
  22  0.625  0.329  0.814-  69 2.02  65 2.03  82 2.58  95 2.63  78 2.69  91 2.72
  23  0.124  0.925  0.199-  58 2.02  70 2.03  92 2.63  81 2.65  79 2.72
  24  0.375  0.171  0.185-  59 2.02  71 2.03  93 2.61  92 2.62  90 2.69  91 2.71
  25  0.477  0.475  0.005-  66 1.98  69 2.01  73 2.53  91 2.54
  26  0.029  0.530  0.998-  56 1.89  63 2.02  79 2.54  73 2.55
  27  0.725  0.629  0.607-  60 2.05  80 2.47  88 2.62  82 2.62
  28  0.020  0.129  0.397-  58 2.08  76 2.47  74 2.58  92 2.67
  29  0.878  0.339  0.840-  56 1.93  65 2.01  72 2.60  78 2.61
  30  0.120  0.559  0.757-  56 1.92  57 2.06  83 2.44  77 2.44
  31  0.124  0.163  0.155-  58 1.95  59 1.99  72 2.56  90 2.57
  32  0.376  0.433  0.227-  66 1.95  59 1.99  75 2.48  93 2.48
  33  0.223  0.725  0.004-  70 1.99  57 2.03  79 2.51  73 2.52
  34  0.778  0.770  0.995-  60 1.97  67 2.04  79 2.52  85 2.59
  35  0.780  0.370  0.397-  62 2.09  82 2.47  74 2.58  80 2.66
  36  0.628  0.584  0.844-  60 1.95  69 1.99  78 2.56  84 2.60
  37  0.873  0.816  0.775-  60 1.94  61 1.99  83 2.45  89 2.47
  38  0.875  0.412  0.154-  62 1.96  63 1.99  78 2.55  72 2.55
  39  0.127  0.684  0.230-  70 1.96  63 1.99  81 2.47  75 2.47
  40  0.975  0.978  0.005-  58 1.98  61 2.00  79 2.52  85 2.55
  41  0.525  0.024  0.996-  64 1.97  71 2.03  91 2.53  85 2.55
  42  0.478  0.880  0.608-  64 2.04  86 2.48  94 2.63  88 2.64
  43  0.522  0.620  0.394-  66 2.03  88 2.48  86 2.64  80 2.65
  44  0.376  0.837  0.844-  64 1.95  57 2.01  90 2.57  84 2.57
  45  0.623  0.066  0.770-  64 1.95  65 2.00  89 2.47  95 2.47
  46  0.624  0.663  0.155-  66 1.95  67 1.99  78 2.54  84 2.57
  47  0.877  0.934  0.227-  58 1.95  67 2.00  81 2.47  87 2.48
  48  0.727  0.228  0.003-  62 1.99  65 2.03  91 2.57  85 2.58
  49  0.272  0.276  0.995-  68 1.97  59 2.03  73 2.54  91 2.58
  50  0.228  0.127  0.606-  68 2.05  92 2.48  94 2.62  76 2.63
  51  0.273  0.871  0.393-  70 2.04  94 2.48  86 2.63  92 2.64
  52  0.124  0.089  0.843-  68 1.95  61 1.99  72 2.55  90 2.59
  53  0.372  0.317  0.774-  68 1.94  69 1.99  77 2.45  95 2.47
  54  0.373  0.913  0.155-  70 1.95  71 1.99  90 2.56  84 2.57
  55  0.628  0.184  0.228-  62 1.94  71 2.00  93 2.47  87 2.47
  56  0.002  0.456  0.816-  26 1.89  30 1.92  29 1.93   9 1.98   3 1.99
  57  0.248  0.700  0.808-  44 2.01   4 2.02  10 2.02  33 2.03  30 2.06   1 2.12
  58  0.000  0.051  0.196-  47 1.95  31 1.95  40 1.98   5 2.01  23 2.02  28 2.08
  59  0.250  0.298  0.191-  31 1.99  32 1.99  24 2.02   6 2.02  49 2.03   2 2.13
  60  0.751  0.698  0.805-  37 1.94  36 1.95  34 1.97  15 2.04  27 2.05   9 2.05
[...]
  81  0.994  0.837  0.367-   7 2.41  39 2.47  47 2.47  12 2.61  23 2.65
  82  0.739  0.404  0.635-  35 2.47  13 2.57   9 2.57  22 2.58  19 2.58  27 2.62
  83  0.005  0.668  0.632-   8 2.40  30 2.44  37 2.45  10 2.61   9 2.62
  84  0.501  0.751  1.000-  46 2.57  44 2.57  54 2.57  36 2.60  18 2.67   4 2.69  15 2.77
  85  0.750  0.999  0.000-  40 2.55  41 2.55  48 2.58  34 2.59  18 2.70  16 2.73  15 2.79
  86  0.505  0.847  0.367-  42 2.48  20 2.62  14 2.62  18 2.62  51 2.63  43 2.64  17 2.65
  87  0.745  0.087  0.368-  13 2.40  55 2.47  47 2.48  18 2.64   5 2.69
  88  0.495  0.654  0.634-  43 2.48   1 2.60  27 2.62  19 2.63   4 2.63  15 2.63  42 2.64
  89  0.754  0.911  0.634-  14 2.40  37 2.47  45 2.47  16 2.62  15 2.64
  90  0.251  0.001  0.999-  54 2.56  44 2.57  31 2.57  52 2.59  10 2.69  24 2.69  21 2.76
  91  0.499  0.249  0.999-  41 2.53  25 2.54  48 2.57  49 2.58  24 2.71  22 2.72  21 2.78
  92  0.255  0.097  0.366-  50 2.48  24 2.62   2 2.62  20 2.62  23 2.63  51 2.64  28 2.67
  93  0.495  0.336  0.366-  19 2.42  55 2.47  32 2.48  24 2.61  11 2.65
  94  0.246  0.903  0.633-  51 2.48   1 2.60   7 2.62  50 2.62  42 2.63  10 2.63  21 2.63
  95  0.502  0.163  0.633-  20 2.40  53 2.47  45 2.47  22 2.63  21 2.65

  LATTYP: Found a triclinic cell.
 ALAT       =    11.1967222147
 B/A-ratio  =     0.9425406780
 C/A-ratio  =     1.0000000005
 COS(alpha) =     0.0093862067
 COS(beta)  =     0.0432045039
 COS(gamma) =     0.2673139189

  Lattice vectors:

 A1 = (   7.3433505600,   7.9467915400,  -2.8792872600)
 A2 = (   0.0478291200,   0.1071026000, -10.5527142700)
 A3 = (  -7.8866538400,   7.9475567000,  -0.0601846200)

Analysis of symmetry for initial positions (statically):
 Subroutine PRICEL returns:
 Original cell was already a primitive cell.

 Routine SETGRP: Setting up the symmetry group for a
 triclinic supercell.

 Subroutine GETGRP returns: Found  1 space group operations
 (whereof  1 operations were pure point group operations)
 out of a pool of  2 trial point group operations.

The static configuration has the point symmetry C_1 .

Analysis of symmetry for dynamics (positions and initial velocities):
 Subroutine PRICEL returns:
 Original cell was already a primitive cell.

[...]

The dynamic configuration has the point symmetry C_1 .

Analysis of structural, dynamic, and magnetic symmetry:
 Subroutine PRICEL returns:
 Original cell was already a primitive cell.

 Routine SETGRP: Setting up the symmetry group for a
 triclinic supercell.

 Subroutine GETGRP returns: Found  1 space group operations
 (whereof  1 operations were pure point group operations)
 out of a pool of  2 trial point group operations.

The overall configuration has the point symmetry C_1 .

 Subroutine INISYM returns: Found  1 space group operations
 (whereof  1 operations are pure point group operations),
 and found     1 'primitive' translations

                                     Primitive cell

  volume of cell :    1273.6998

  direct lattice vectors                    reciprocal lattice vectors
     7.886653840 -7.947556700  0.060184620     0.065597751 -0.060732181 -0.000319074
     7.343350560  7.946791540 -2.879287260     0.065841142  0.065343877  0.000961613
    -0.047829120 -0.107102600 10.552714270     0.017590506  0.018175318  0.095026544

  length of vectors
    11.196722220 11.196722215 10.553366148     0.089395551  0.092767467  0.098335203

  position of ions in fractional coordinates (direct lattice)
     0.266367060  0.666668290  0.601653730
     0.229979740  0.334796430  0.398405320
     0.119479390  0.323934990  0.788829870
     0.374889810  0.579365660  0.816728720
     0.877032690  0.176253540  0.196733880
     0.122887410  0.418906090  0.183421360
     0.014547220  0.912707890  0.602478290
     0.984841820  0.579158350  0.399217800
     0.877225960  0.567512420  0.788927340
     0.125433770  0.829094980  0.816642060
     0.627441400  0.426083450  0.199820710
     0.874191070  0.670536670  0.187306870
     0.771242540  0.171868020  0.601076260
     0.735552110  0.835451200  0.399482520
     0.624939250  0.823980490  0.803077040
     0.875664630  0.078471090  0.813132960
     0.374981740  0.674185190  0.197299100
     0.624273110  0.920017450  0.184313780
     0.511722980  0.414452450  0.602191660
     0.485357950  0.085242120  0.398894370
     0.373167030  0.075627440  0.802949430
     0.624768810  0.329120450  0.814083400
     0.124195540  0.925287030  0.199422520
     0.374515260  0.171402410  0.185454560
     0.476774350  0.475190080  0.005253400
     0.029037030  0.529738080  0.997890180
     0.725447710  0.629188540  0.606813140
     0.020423580  0.128717350  0.396755280
     0.878046460  0.338791030  0.840420900
     0.120064290  0.559020580  0.757366870
     0.123764400  0.162939100  0.155059880
     0.376222160  0.433413590  0.226933920
     0.222595410  0.724559920  0.004111180
     0.777750470  0.769651510  0.995347140
     0.779605460  0.369694290  0.397139400
     0.628204460  0.584382650  0.843723540
     0.873233370  0.815595870  0.774577180
     0.874921080  0.411785540  0.153785910
     0.126521750  0.683992080  0.229569940
     0.974816850  0.977673260  0.004516260
     0.524948400  0.024388970  0.995700830
     0.477991800  0.880011790  0.607719160
     0.521887740  0.620455350  0.393579450
     0.376244050  0.837192620  0.843736930
     0.623374360  0.066339810  0.770286940
     0.623594660  0.662557970  0.155258540
[...]
   0.427E+02 -.828E+02 -.405E+03   -.441E+02 0.829E+02 0.406E+03   0.148E+01 -.955E-01 -.993E+00
   0.253E+02 0.293E+02 0.126E+03   -.259E+02 -.294E+02 -.128E+03   0.587E+00 0.171E+00 0.160E+01
   -.787E+01 -.385E+02 -.105E+03   0.859E+01 0.381E+02 0.103E+03   -.720E+00 0.416E+00 0.163E+01
   -.358E+02 -.275E+02 -.133E+03   0.357E+02 0.277E+02 0.134E+03   0.935E-01 -.201E+00 -.109E+01
   0.992E+01 0.217E+02 0.110E+03   -.102E+02 -.216E+02 -.110E+03   0.327E+00 -.106E+00 -.919E+00
   -.454E+02 0.755E+02 0.408E+03   0.472E+02 -.761E+02 -.408E+03   -.183E+01 0.532E+00 0.744E+00
   0.426E+02 -.677E+02 -.408E+03   -.441E+02 0.679E+02 0.409E+03   0.150E+01 -.154E+00 -.981E+00
   0.248E+02 0.227E+02 0.130E+03   -.254E+02 -.230E+02 -.132E+03   0.593E+00 0.311E+00 0.139E+01
   -.150E+02 -.414E+01 -.113E+03   0.156E+02 0.398E+01 0.112E+03   -.559E+00 0.147E+00 0.160E+01
   -.365E+02 -.242E+02 -.138E+03   0.365E+02 0.245E+02 0.139E+03   0.316E-02 -.352E+00 -.142E+01
   0.924E+01 0.221E+02 0.109E+03   -.929E+01 -.216E+02 -.108E+03   0.424E-01 -.484E+00 -.115E+01
   0.168E+02 -.696E+00 -.140E+02   -.171E+02 0.803E+00 0.144E+02   0.223E+00 -.109E+00 -.428E+00
   -.188E+02 0.131E+01 0.167E+02   0.186E+02 -.153E+01 -.180E+02   0.241E+00 0.225E+00 0.125E+01
   0.229E+02 0.174E+02 0.853E+02   -.230E+02 -.173E+02 -.847E+02   0.893E-01 -.703E-01 -.584E+00
   -.226E+02 -.187E+02 -.877E+02   0.227E+02 0.187E+02 0.873E+02   -.140E+00 -.175E-01 0.409E+00
   -.256E+02 -.414E+01 -.108E+02   0.264E+02 0.413E+01 0.107E+02   -.736E+00 0.166E-01 0.693E-01
   0.438E+02 0.705E+01 0.285E+02   -.447E+02 -.707E+01 -.285E+02   0.887E+00 0.216E-01 0.185E-01
   0.256E+02 0.798E+01 0.194E+02   -.259E+02 -.791E+01 -.193E+02   0.342E+00 -.734E-01 -.566E-01
   -.376E+02 -.251E+01 -.150E+02   0.380E+02 0.259E+01 0.153E+02   -.398E+00 -.806E-01 -.359E+00
   0.191E+02 -.191E+01 -.119E+02   -.194E+02 0.201E+01 0.124E+02   0.295E+00 -.105E+00 -.543E+00
   -.146E+02 0.679E+01 0.144E+02   0.147E+02 -.701E+01 -.151E+02   -.167E+00 0.220E+00 0.670E+00
   -.215E+02 -.150E+02 -.877E+02   0.217E+02 0.148E+02 0.873E+02   -.186E+00 0.140E+00 0.358E+00
   -.299E+02 -.284E+01 -.182E+02   0.303E+02 0.276E+01 0.182E+02   -.401E+00 0.894E-01 0.674E-01
   0.397E+02 0.423E+01 0.892E+01   -.402E+02 -.436E+01 -.930E+01   0.503E+00 0.127E+00 0.391E+00
   0.255E+02 0.211E+01 0.233E+02   -.258E+02 -.214E+01 -.233E+02   0.325E+00 0.298E-01 0.477E-02
   -.380E+02 -.419E+01 -.163E+02   0.383E+02 0.428E+01 0.167E+02   -.365E+00 -.971E-01 -.362E+00
   0.176E+02 -.213E+01 -.140E+02   -.179E+02 0.214E+01 0.144E+02   0.238E+00 -.409E-02 -.408E+00
   -.184E+02 0.196E+01 0.131E+02   0.186E+02 -.205E+01 -.138E+02   -.175E+00 0.935E-01 0.663E+00
   0.205E+02 0.168E+02 0.864E+02   -.206E+02 -.166E+02 -.857E+02   0.849E-01 -.126E+00 -.669E+00
   -.232E+02 -.168E+02 -.867E+02   0.233E+02 0.167E+02 0.860E+02   -.479E-01 0.118E+00 0.672E+00
   -.248E+02 -.389E+01 -.179E+02   0.253E+02 0.391E+01 0.178E+02   -.489E+00 -.213E-01 0.465E-01
   0.371E+02 0.476E+01 0.182E+02   -.375E+02 -.485E+01 -.185E+02   0.440E+00 0.892E-01 0.345E+00
   0.242E+02 0.421E+01 0.196E+02   -.246E+02 -.429E+01 -.196E+02   0.370E+00 0.811E-01 -.308E-01
   -.360E+02 -.609E+01 -.139E+02   0.365E+02 0.614E+01 0.142E+02   -.493E+00 -.444E-01 -.373E+00
   0.170E+02 -.243E+01 -.119E+02   -.171E+02 0.253E+01 0.124E+02   0.134E+00 -.964E-01 -.499E+00
   -.156E+02 -.109E+01 0.169E+02   0.157E+02 0.103E+01 -.176E+02   -.132E+00 0.565E-01 0.656E+00
   0.225E+02 0.159E+02 0.864E+02   -.226E+02 -.158E+02 -.858E+02   0.809E-01 -.149E+00 -.635E+00
   -.233E+02 -.169E+02 -.862E+02   0.234E+02 0.168E+02 0.855E+02   -.796E-01 0.124E+00 0.638E+00
   -.294E+02 -.479E+01 -.173E+02   0.298E+02 0.490E+01 0.172E+02   -.413E+00 -.114E+00 0.799E-01
   0.393E+02 0.156E+01 0.992E+01   -.398E+02 -.161E+01 -.103E+02   0.545E+00 0.522E-01 0.399E+00
   0.256E+02 0.406E+01 0.184E+02   -.259E+02 -.405E+01 -.183E+02   0.381E+00 -.807E-02 -.576E-01
   -.375E+02 -.335E+01 -.145E+02   0.381E+02 0.345E+01 0.148E+02   -.527E+00 -.108E+00 -.364E+00
   0.101E+02 0.878E+01 0.439E+02   -.108E+02 -.914E+01 -.450E+02   0.710E+00 0.359E+00 0.113E+01
   0.750E+01 -.196E+02 -.108E+03   -.803E+01 0.202E+02 0.111E+03   0.537E+00 -.602E+00 -.325E+01
   -.115E+02 -.807E+01 -.603E+02   0.119E+02 0.789E+01 0.612E+02   -.488E+00 0.172E+00 -.872E+00
   0.110E+01 0.229E+02 0.107E+03   -.112E+01 -.235E+02 -.110E+03   0.253E-01 0.577E+00 0.298E+01
   0.101E+02 0.178E+02 0.382E+02   -.104E+02 -.181E+02 -.383E+02   0.380E+00 0.302E+00 0.591E-01
[...]
   -.115E+03 0.486E+02 0.204E+03   0.116E+03 -.490E+02 -.205E+03   -.610E+00 0.362E+00 0.118E+01
   0.118E+03 0.222E+02 0.437E+02   -.119E+03 -.223E+02 -.437E+02   0.288E+00 0.689E-01 -.253E-01
   0.145E+01 0.124E+01 0.148E+00   -.149E+01 -.127E+01 -.157E+00   0.421E-01 0.222E-01 0.937E-02
   -.197E+01 -.650E+00 0.286E+01   0.202E+01 0.644E+00 -.288E+01   -.462E-01 0.756E-02 0.219E-01
   0.988E+02 -.337E+02 -.199E+03   -.993E+02 0.339E+02 0.200E+03   0.524E+00 -.153E+00 -.949E+00
   -.110E+03 -.130E+02 -.482E+02   0.110E+03 0.130E+02 0.480E+02   -.205E+00 0.179E-01 0.125E+00
   -.101E+03 0.368E+02 0.197E+03   0.101E+03 -.370E+02 -.198E+03   -.497E+00 0.245E+00 0.920E+00
   0.106E+03 0.389E+01 0.499E+02   -.106E+03 -.380E+01 -.499E+02   0.134E+00 -.839E-01 -.870E-01
   0.154E+01 -.368E+00 -.355E+01   -.157E+01 0.394E+00 0.358E+01   0.282E-01 -.255E-01 -.290E-01
   -.441E+01 0.121E+01 -.138E+01   0.447E+01 -.120E+01 0.141E+01   -.539E-01 -.732E-02 -.319E-01
   0.979E+02 -.337E+02 -.200E+03   -.984E+02 0.339E+02 0.201E+03   0.523E+00 -.152E+00 -.969E+00
   -.111E+03 -.139E+02 -.489E+02   0.111E+03 0.139E+02 0.488E+02   -.248E+00 -.304E-01 0.527E-01
   -.101E+03 0.307E+02 0.199E+03   0.102E+03 -.308E+02 -.199E+03   -.495E+00 0.723E-01 0.955E+00
   0.106E+03 0.213E+02 0.462E+02   -.106E+03 -.214E+02 -.461E+02   0.134E+00 0.609E-01 -.121E+00
   -.110E+01 -.625E+00 -.344E+01   0.284E-13 0.533E-13 0.547E-12   0.112E+01 0.624E+00 0.343E+01

 POSITION                                       TOTAL-FORCE (eV/Angst)
      6.96811      3.11643      4.44552         0.019219     -0.002363      0.001233
      4.25338      0.78985      3.25385         0.009317     -0.009166     -0.005835
      3.28319      1.54040      7.39933        -0.005247      0.002987      0.014992
      7.17180      1.53703      6.97334        -0.006205     -0.003817      0.001628
      8.20164     -5.59064      1.62143        -0.001725      0.001290      0.004678
      4.03666      2.33321      0.73620         0.003005      0.010589     -0.011384
      6.78839      7.07306      3.73088         0.002259      0.003305      0.004383
     12.00119     -3.26715      2.60384         0.008702      0.009504     -0.015397
     11.04792     -2.54619      6.74477        -0.006197      0.007509      0.016041
      7.03823      5.50492      6.23798        -0.006603      0.011610     -0.006832
      8.06761     -1.62239      0.91975        -0.005470     -0.001160      0.004337
     11.80957     -1.64076      0.09853         0.001390     -0.029663     -0.002442
      7.31629     -4.82794      5.89468         0.016463      0.002208      0.001973
     11.91714      0.75055      1.85458         0.003402     -0.000344      0.003169
     10.94098      1.49398      6.14034        -0.003872     -0.025322      0.011545
      7.44363     -6.42283      8.40739         0.001329      0.002664     -0.003881
      7.89836      2.35637      0.16319        -0.007958      0.001129     -0.003975
     11.67065      2.32989     -0.66651         0.000679     -0.003115     -0.003482
      7.05038     -0.83803      5.19242        -0.003180     -0.001891      0.004579
      4.43480     -3.22280      3.99308         0.000325     -0.001062     -0.006601
      3.45996     -2.44948      8.27787        -0.002288      0.026478     -0.001743
      7.30528     -2.43752      7.68033        -0.004170     -0.009223     -0.011242
      7.76421      6.34482     -0.55217        -0.010279     -0.002815      0.001890
      4.20331     -1.63357      1.48592        -0.004435      0.011185     -0.004692
      7.24939     -0.01351     -1.28401         0.001301     -0.002578      0.001057
      4.07163      3.87207      9.00669         0.006359     -0.000244     -0.010523
     10.31261     -0.82988      4.63571        -0.001708      0.012794      0.000323
      1.08762      0.81798      3.81733         0.006832     -0.002068      0.000210
      9.37284     -4.37587      7.94699         0.005094      0.003736      0.018124
      5.01538      3.40708      6.38989        -0.005222     -0.000759     -0.004906
      2.16512      0.29455      1.17447        -0.001314     -0.002516     -0.001580
      6.13881      0.43008      1.16930        -0.000006      0.001727     -0.003049
      7.07617      3.98829     -2.02948         0.004601     -0.000909     -0.003550
     11.73783     -0.17162      8.33401        -0.004586      0.000587     -0.001398
      8.84467     -3.30055      3.17318         0.008895      0.002554     -0.002106
      9.20543     -0.43891      7.25894        -0.003376      0.004329      0.004262
     12.83895     -0.54148      5.87868        -0.000975      0.003426      0.009591
      9.91682     -3.69759      0.48951        -0.001219      0.001280     -0.006211
      6.00955      4.40536      0.46097         0.003956     -0.000216      0.004737
     14.86720      0.02144     -2.70839        -0.001571     -0.001576      0.002810
      4.27213     -4.08499     10.46889         0.010812     -0.001708      0.002207
     10.20279      3.12921      3.90815        -0.002472     -0.001947      0.004555
      8.65365      0.74093      2.39836         0.007128      0.003577      0.001424
      9.07438      3.57239      6.51644        -0.005526      0.000195      0.010502
      5.36692     -4.50964      7.97444         0.000957     -0.000775     -0.014032
      9.77591      0.29241     -0.23171         0.000243     -0.001963      0.003055
     13.76267      0.42618     -0.24313        -0.001164      0.002111      0.000739
      7.40562     -3.96714     -0.58304        -0.009297      0.005634      0.001568
      4.11974     -0.07598      9.71724        -0.000994     -0.001418     -0.005154
      2.70201     -0.86297      6.04363         0.002795     -0.009233      0.001537
      8.52526      4.71046      1.65886         0.016715     -0.002744     -0.000308
      1.58928     -0.36801      8.65092        -0.002701     -0.001882      0.000639
      5.22059     -0.52005      7.28201         0.000272     -0.001445      0.008346
      9.64102      4.27177     -0.97307        -0.002778      0.001124     -0.002734
      6.28842     -3.55249      1.91184         0.000708     -0.001531      0.001820
      3.32779      3.52388      7.29860        -0.004343     -0.002439     -0.004833
      7.06399      3.50470      6.52825         0.002495     -0.002574     -0.009683
      0.36534      0.37798      1.92109        -0.000237     -0.000055      0.002075
      4.15080      0.35918      1.16857         0.001732     -0.007224     -0.000397
     11.01471     -0.50798      6.53276        -0.006886      0.012748      0.001824
[...]
     13.96992     -1.28954      1.52673        -0.003662     -0.000366     -0.000537
      8.76364     -2.72719      5.57721        -0.003184     -0.001209     -0.007099
      4.91715      5.20177      4.74687        -0.003120      0.000888     -0.006105
      9.41546      1.87726      8.41804        -0.003941     -0.000470      0.000627
     13.24770      1.98186     -2.82602         0.003679      0.001191      0.000810
     10.18614      2.67630      1.46538        -0.000925     -0.000146      0.005462
      6.49704     -5.27065      3.67771        -0.000834     -0.000845     -0.001501
      8.67116      1.19672      4.83812         0.000101      0.000939      0.003648
     12.60620      1.17264      4.11594        -0.005137      0.000104      0.004920
      1.93813     -2.09446     10.55349        -0.002805      0.001312     -0.000807
      5.71722     -2.09585      9.85680         0.002974     -0.000157     -0.001394
      2.70160     -1.29189      3.60116         0.001437     -0.001128      0.003023
      6.35808     -1.30343      2.92546        -0.003352      0.001892      0.000103
      8.53670      5.15636      4.10001         0.001485      0.000309      0.001342
      5.12859     -2.76015      6.24394        -0.005204      0.001265      0.003650
    total drift:                                0.018652     -0.001093     -0.003494

  FREE ENERGIE OF THE ION-ELECTRON SYSTEM (eV)
  free  energy   TOTEN  =      -497.75023309 eV

  energy  without entropy=     -497.73673914  energy(sigma->0) =     -497.74348611

 d Force = 0.5294378E-03[ 0.453E-03, 0.606E-03]  d Energy = 0.4589892E-03 0.704E-04
 d Force =-0.3553676E-01[-0.443E-01,-0.268E-01]  d Ewald  =-0.3553794E-01 0.118E-05

 Steepest descent step on ions:
 trial-energy change:   -0.000459  1 .order   -0.000529   -0.000606   -0.000453
  (g-gl).g = 0.606E-03      g.g   = 0.606E-03  gl.gl    = 0.000E+00
 g(Force)  = 0.606E-03   g(Stress)= 0.000E+00 ortho     = 0.000E+00
 gamma     =   0.00000
 trial     =   1.00000
 opt step  =   3.94620  (harmonic =   3.94620) maximal distance =0.00510240
 next E    =  -497.750970   (d E  =  -0.00120)

 reached required accuracy - stopping structural energy minimisation

 total charge

[...]

 magnetization (x)

# of ion       s       p       d       tot
    1        0.035   0.027   3.583   3.646
    2        0.035   0.028   3.584   3.646
    3        0.039   0.031   3.532   3.602
    4        0.036   0.029   3.559   3.624
    5        0.036   0.030   3.511   3.578
    6        0.035   0.029   3.553   3.617
    7        0.034   0.027   3.580   3.642
    8        0.035   0.028   3.583   3.646
    9        0.039   0.031   3.528   3.598
   10        0.036   0.029   3.560   3.625
   11        0.036   0.030   3.525   3.591
   12        0.036   0.029   3.561   3.626
   13        0.035   0.029   3.584   3.648
   14        0.035   0.026   3.586   3.647
   15        0.036   0.030   3.537   3.603
   16        0.035   0.029   3.560   3.624
   17        0.036   0.029   3.529   3.595
   18        0.036   0.029   3.563   3.628
   19        0.034   0.027   3.582   3.643
   20        0.036   0.026   3.585   3.647
   21        0.036   0.029   3.539   3.604
   22        0.035   0.029   3.559   3.623
   23        0.036   0.029   3.525   3.590
   24        0.035   0.029   3.560   3.624
   25        0.000   0.000   0.000   0.000
   26        0.000   0.001   0.000   0.001
   27        0.001   0.002   0.000   0.002
   28        0.001   0.002   0.000   0.003
   29       -0.000  -0.000   0.000  -0.001
   30        0.000   0.000   0.000   0.001
   31       -0.000  -0.000   0.000  -0.001
   32        0.000   0.000   0.000   0.001
   33       -0.000   0.000   0.000   0.000
   34        0.000   0.000   0.000   0.001
   35        0.001   0.002   0.000   0.003
   36       -0.000  -0.000   0.000  -0.000
   37        0.000   0.000   0.000   0.001
   38       -0.000  -0.000   0.000  -0.001
   39        0.000   0.000   0.000   0.001
   40        0.000   0.000   0.000   0.000
   41       -0.000   0.000   0.000   0.000
   42        0.001   0.002   0.000   0.003
   43        0.001   0.002   0.000   0.002
   44       -0.000  -0.000   0.000  -0.001
   45        0.000   0.001   0.000   0.001
   46       -0.000  -0.000   0.000  -0.001
   47        0.000   0.000   0.000   0.001
   48       -0.000   0.000   0.000   0.000
   49        0.000   0.000   0.000   0.001
   50        0.001   0.002   0.000   0.002
   51        0.001   0.002   0.000   0.002
   52       -0.000  -0.000   0.000  -0.000
   53        0.000   0.000   0.000   0.001
   54       -0.000  -0.000   0.000  -0.000
   55        0.000   0.001   0.000   0.001
   56        0.007   0.071   0.000   0.078
   57        0.012   0.111   0.000   0.123
   58        0.008   0.060   0.000   0.068
   59        0.012   0.112   0.000   0.124
   60        0.008   0.061   0.000   0.068
[...]
   81        0.016   0.066   0.000   0.081
   82        0.014   0.066   0.000   0.080
   83        0.015   0.061   0.000   0.076
   84        0.014   0.042   0.000   0.056
   85        0.014   0.041   0.000   0.055
   86        0.015   0.067   0.000   0.082
   87        0.015   0.062   0.000   0.077
   88        0.015   0.070   0.000   0.085
   89        0.015   0.062   0.000   0.077
   90        0.014   0.041   0.000   0.054
   91        0.014   0.044   0.000   0.057
   92        0.015   0.065   0.000   0.080
   93        0.015   0.060   0.000   0.075
   94        0.015   0.071   0.000   0.086
   95        0.015   0.063   0.000   0.078
tot          1.362   3.486  85.370  90.218