 vasp.5.4.4.18Apr17-6-g9f103f2a35 (build Oct 25 2017 14:42:18) complex

 executed on             LinuxIFC date 2021.04.17  23:27:48

 INCAR:
 POTCAR:    PAW_PBE Li_sv 10Sep2004
 POTCAR:    PAW_PBE Fe_pv 02Aug2007
 POTCAR:    PAW_PBE S 06Sep2000
 POTCAR:    PAW_PBE O 08Apr2002

 POTCAR:    PAW_PBE Li_sv 10Sep2004

 POTCAR:    PAW_PBE Fe_pv 02Aug2007

 POTCAR:    PAW_PBE S 06Sep2000

 POTCAR:    PAW_PBE O 08Apr2002

  PAW_PBE Li_sv 10Sep2004               :
  PAW_PBE Fe_pv 02Aug2007               :
  PAW_PBE S 06Sep2000                   :
  PAW_PBE O 08Apr2002                   :

 POSCAR: # Compound: Li8Fe6S6O4. Old comment: Fe3
  positions in direct lattice
 exchange correlation table for  LEXCH =        8
   RHO(1)=    0.500       N(1)  =     2000
   RHO(2)=  100.500       N(2)  =     4000

 ion  position               nearest neighbor table
   1  0.951  0.002  0.004-  23 1.97  22 2.03  16 2.54  16 2.54
   2  0.549  0.998  0.996-  21 1.97  24 2.03  16 2.54  16 2.54
   3  0.356  0.804  0.608-  21 2.04  17 2.47  19 2.63  19 2.63
   4  0.144  0.196  0.392-  23 2.04  19 2.47  17 2.63  17 2.63
   5  0.215  0.923  0.846-  21 1.95  22 1.99  15 2.56  15 2.56
   6  0.689  0.886  0.772-  21 1.94  22 2.00  20 2.48  20 2.48
   7  0.285  0.077  0.154-  23 1.95  24 1.99  15 2.56  15 2.56
   8  0.811  0.114  0.228-  23 1.94  24 2.00  18 2.48  18 2.48
   9  0.930  0.801  0.601-  22 2.12  18 2.40  19 2.61  19 2.61
  10  0.570  0.199  0.399-  24 2.12  20 2.40  17 2.61  17 2.61
  11  0.449  0.401  0.801-  21 2.02  21 2.02  19 2.64  20 2.66  15 2.79
  12  0.956  0.407  0.815-  22 2.03  22 2.03  19 2.62  20 2.63  15 2.68  16 2.71
  13  0.051  0.599  0.199-  23 2.02  23 2.02  17 2.64  18 2.66  15 2.79
  14  0.544  0.593  0.185-  24 2.03  24 2.03  17 2.62  18 2.63  15 2.68  16 2.71
  15  0.250  0.500  0.000-   5 2.56   7 2.56   7 2.56   5 2.56  14 2.68  12 2.68  11 2.79  13 2.79

  16  0.750  0.500  0.000-   1 2.54   2 2.54   1 2.54   2 2.54  14 2.71  12 2.71
  17  0.352  0.684  0.369-   3 2.47  10 2.61  10 2.61  14 2.62   4 2.63   4 2.63  13 2.64
  18  0.831  0.684  0.368-   9 2.40   8 2.48   8 2.48  14 2.63  13 2.66
  19  0.148  0.316  0.631-   4 2.47   9 2.61   9 2.61  12 2.62   3 2.63   3 2.63  11 2.64
  20  0.669  0.316  0.632-  10 2.40   6 2.48   6 2.48  12 2.63  11 2.66
  21  0.451  0.903  0.806-   6 1.94   5 1.95   2 1.97  11 2.02  11 2.02   3 2.04
  22  0.952  0.904  0.809-   5 1.99   6 2.00  12 2.03  12 2.03   1 2.03   9 2.12
  23  0.049  0.097  0.194-   8 1.94   7 1.95   1 1.97  13 2.02  13 2.02   4 2.04
  24  0.548  0.096  0.191-   7 1.99   8 2.00  14 2.03  14 2.03   2 2.03  10 2.12

IMPORTANT INFORMATION: All symmetrisations will be switched off!
NOSYMM: (Re-)initialisation of all symmetry stuff for point group C_1.

 KPOINTS: # No comment

Automatic generation of k-mesh.
Space group operators:
 irot       det(A)        alpha          n_x          n_y          n_z        tau_x        tau_y        tau_z
    1     1.000000     0.000001     1.000000     0.000000     0.000000     0.000000     0.000000     0.000000

 Subroutine IBZKPT returns following result:

 Found     43 irreducible k-points:

 Following reciprocal coordinates:
            Coordinates               Weight
  0.000000  0.000000  0.000000      1.000000
  0.250000 -0.000000  0.000000      2.000000
  0.500000 -0.000000  0.000000      1.000000
 -0.000000  0.142857  0.000000      2.000000
  0.250000  0.142857 -0.000000      2.000000
  0.500000  0.142857  0.000000      2.000000
 -0.250000  0.142857 -0.000000      2.000000
  0.000000  0.285714  0.000000      2.000000
  0.250000  0.285714  0.000000      2.000000
  0.500000  0.285714 -0.000000      2.000000
 -0.250000  0.285714 -0.000000      2.000000
 -0.000000  0.428571  0.000000      2.000000
  0.250000  0.428571  0.000000      2.000000
  0.500000  0.428571 -0.000000      2.000000
 -0.250000  0.428571 -0.000000      2.000000
  0.000000  0.000000  0.333333      2.000000
  0.250000  0.000000  0.333333      2.000000
  0.500000  0.000000  0.333333      2.000000
 -0.250000  0.000000  0.333333      2.000000
 -0.000000  0.142857  0.333333      2.000000
  0.250000  0.142857  0.333333      2.000000
  0.500000  0.142857  0.333333      2.000000
 -0.250000  0.142857  0.333333      2.000000
 -0.000000  0.285714  0.333333      2.000000
  0.250000  0.285714  0.333333      2.000000
  0.500000  0.285714  0.333333      2.000000
 -0.250000  0.285714  0.333333      2.000000
  0.000000  0.428571  0.333333      2.000000
  0.250000  0.428571  0.333333      2.000000
  0.500000  0.428571  0.333333      2.000000
 -0.250000  0.428571  0.333333      2.000000
  0.000000 -0.428571  0.333333      2.000000
  0.250000 -0.428571  0.333333      2.000000
  0.500000 -0.428571  0.333333      2.000000
 -0.250000 -0.428571  0.333333      2.000000
  0.000000 -0.285714  0.333333      2.000000
  0.250000 -0.285714  0.333333      2.000000
  0.500000 -0.285714  0.333333      2.000000
 -0.250000 -0.285714  0.333333      2.000000
  0.000000 -0.142857  0.333333      2.000000
  0.250000 -0.142857  0.333333      2.000000
  0.500000 -0.142857  0.333333      2.000000
 -0.250000 -0.142857  0.333333      2.000000

 Following cartesian coordinates:
            Coordinates               Weight
  0.000000  0.000000  0.000000      1.000000
  0.032907  0.001163  0.000205      2.000000
  0.065813  0.002325  0.000410      1.000000
  0.000058  0.035979  0.000381      2.000000
  0.032964  0.037142  0.000586      2.000000
  0.065871  0.038305  0.000791      2.000000
 -0.032849  0.034817  0.000176      2.000000
  0.000115  0.071959  0.000763      2.000000
  0.033022  0.073121  0.000968      2.000000
  0.065929  0.074284  0.001173      2.000000
 -0.032792  0.070796  0.000558      2.000000
  0.000173  0.107938  0.001144      2.000000
  0.033079  0.109101  0.001349      2.000000
  0.065986  0.110263  0.001554      2.000000
 -0.032734  0.106775  0.000939      2.000000
  0.005801  0.006063  0.031710      2.000000
  0.038707  0.007225  0.031916      2.000000
  0.071614  0.008388  0.032121      2.000000
 -0.027106  0.004900  0.031505      2.000000
  0.005858  0.042042  0.032092      2.000000
  0.038765  0.043205  0.032297      2.000000
  0.071672  0.044368  0.032502      2.000000
 -0.027048  0.040879  0.031887      2.000000
  0.005916  0.078021  0.032473      2.000000
  0.038823  0.079184  0.032678      2.000000
  0.071729  0.080347  0.032883      2.000000
 -0.026991  0.076859  0.032268      2.000000
  0.005973  0.114001  0.032855      2.000000
  0.038880  0.115163  0.033060      2.000000
  0.071787  0.116326  0.033265      2.000000
 -0.026933  0.112838  0.032650      2.000000
  0.005628 -0.101875  0.030566      2.000000
  0.038535 -0.100712  0.030771      2.000000
  0.071441 -0.099550  0.030976      2.000000
 -0.027279 -0.103038  0.030361      2.000000
  0.005686 -0.065896  0.030948      2.000000
  0.038592 -0.064733  0.031153      2.000000
  0.071499 -0.063570  0.031358      2.000000
 -0.027221 -0.067059  0.030743      2.000000
  0.005743 -0.029917  0.031329      2.000000
  0.038650 -0.028754  0.031534      2.000000
  0.071557 -0.027591  0.031739      2.000000
 -0.027164 -0.031079  0.031124      2.000000

 Subroutine IBZKPT_HF returns following result:

 Found     84 k-points in 1st BZ
 the following     84 k-points will be used (e.g. in the exchange kernel)
 Following reciprocal coordinates:   # in IRBZ
  0.000000  0.000000  0.000000    0.01190476   1 t-inv F
  0.250000 -0.000000  0.000000    0.01190476   2 t-inv F
  0.500000 -0.000000  0.000000    0.01190476   3 t-inv F
 -0.000000  0.142857  0.000000    0.01190476   4 t-inv F
  0.250000  0.142857 -0.000000    0.01190476   5 t-inv F
  0.500000  0.142857  0.000000    0.01190476   6 t-inv F
 -0.250000  0.142857 -0.000000    0.01190476   7 t-inv F
  0.000000  0.285714  0.000000    0.01190476   8 t-inv F
  0.250000  0.285714  0.000000    0.01190476   9 t-inv F
  0.500000  0.285714 -0.000000    0.01190476  10 t-inv F
 -0.250000  0.285714 -0.000000    0.01190476  11 t-inv F
 -0.000000  0.428571  0.000000    0.01190476  12 t-inv F
  0.250000  0.428571  0.000000    0.01190476  13 t-inv F
  0.500000  0.428571 -0.000000    0.01190476  14 t-inv F
 -0.250000  0.428571 -0.000000    0.01190476  15 t-inv F
  0.000000  0.000000  0.333333    0.01190476  16 t-inv F
  0.250000  0.000000  0.333333    0.01190476  17 t-inv F
  0.500000  0.000000  0.333333    0.01190476  18 t-inv F
 -0.250000  0.000000  0.333333    0.01190476  19 t-inv F
 -0.000000  0.142857  0.333333    0.01190476  20 t-inv F
  0.250000  0.142857  0.333333    0.01190476  21 t-inv F
  0.500000  0.142857  0.333333    0.01190476  22 t-inv F
 -0.250000  0.142857  0.333333    0.01190476  23 t-inv F
 -0.000000  0.285714  0.333333    0.01190476  24 t-inv F
  0.250000  0.285714  0.333333    0.01190476  25 t-inv F
  0.500000  0.285714  0.333333    0.01190476  26 t-inv F
 -0.250000  0.285714  0.333333    0.01190476  27 t-inv F
  0.000000  0.428571  0.333333    0.01190476  28 t-inv F
  0.250000  0.428571  0.333333    0.01190476  29 t-inv F
  0.500000  0.428571  0.333333    0.01190476  30 t-inv F
 -0.250000  0.428571  0.333333    0.01190476  31 t-inv F
  0.000000 -0.428571  0.333333    0.01190476  32 t-inv F
  0.250000 -0.428571  0.333333    0.01190476  33 t-inv F
  0.500000 -0.428571  0.333333    0.01190476  34 t-inv F
 -0.250000 -0.428571  0.333333    0.01190476  35 t-inv F
  0.000000 -0.285714  0.333333    0.01190476  36 t-inv F
  0.250000 -0.285714  0.333333    0.01190476  37 t-inv F
  0.500000 -0.285714  0.333333    0.01190476  38 t-inv F
 -0.250000 -0.285714  0.333333    0.01190476  39 t-inv F
  0.000000 -0.142857  0.333333    0.01190476  40 t-inv F
  0.250000 -0.142857  0.333333    0.01190476  41 t-inv F
  0.500000 -0.142857  0.333333    0.01190476  42 t-inv F
 -0.250000 -0.142857  0.333333    0.01190476  43 t-inv F
 -0.250000  0.000000 -0.000000    0.01190476   2 t-inv T
  0.000000 -0.142857  0.000000    0.01190476   4 t-inv T
 -0.250000 -0.142857  0.000000    0.01190476   5 t-inv T
 -0.500000 -0.142857  0.000000    0.01190476   6 t-inv T
  0.250000 -0.142857  0.000000    0.01190476   7 t-inv T
  0.000000 -0.285714 -0.000000    0.01190476   8 t-inv T
 -0.250000 -0.285714  0.000000    0.01190476   9 t-inv T
 -0.500000 -0.285714  0.000000    0.01190476  10 t-inv T
  0.250000 -0.285714  0.000000    0.01190476  11 t-inv T
  0.000000 -0.428571 -0.000000    0.01190476  12 t-inv T
 -0.250000 -0.428571 -0.000000    0.01190476  13 t-inv T
 -0.500000 -0.428571  0.000000    0.01190476  14 t-inv T
  0.250000 -0.428571  0.000000    0.01190476  15 t-inv T
  0.000000  0.000000 -0.333333    0.01190476  16 t-inv T
 -0.250000  0.000000 -0.333333    0.01190476  17 t-inv T
 -0.500000 -0.000000 -0.333333    0.01190476  18 t-inv T
  0.250000 -0.000000 -0.333333    0.01190476  19 t-inv T
[...]
 -0.250000 -0.428571 -0.333333    0.01190476  29 t-inv T
 -0.500000 -0.428571 -0.333333    0.01190476  30 t-inv T
  0.250000 -0.428571 -0.333333    0.01190476  31 t-inv T
  0.000000  0.428571 -0.333333    0.01190476  32 t-inv T
 -0.250000  0.428571 -0.333333    0.01190476  33 t-inv T
 -0.500000  0.428571 -0.333333    0.01190476  34 t-inv T
[...]
   0.126E+02 0.216E+02 0.115E+03   -.128E+02 -.214E+02 -.114E+03   0.197E+00 -.202E+00 -.114E+01   0.515E-04 0.112E-04 0.151E-03
   -.707E-07 0.931E-07 -.642E-08   -.711E-14 -.711E-14 -.497E-13   0.227E-07 -.341E-06 0.315E-07   0.488E-07 0.941E-07 0.665E-09
   0.408E-07 -.468E-07 -.186E-07   0.533E-13 0.533E-14 -.853E-13   0.688E-08 -.122E-06 0.285E-07   -.381E-07 0.680E-07 0.102E-07
   0.101E+03 -.332E+02 -.198E+03   -.101E+03 0.334E+02 0.199E+03   0.480E+00 -.164E+00 -.974E+00   0.347E-04 0.627E-05 0.296E-04
   -.110E+03 -.118E+02 -.436E+02   0.110E+03 0.118E+02 0.436E+02   -.224E+00 0.275E-02 0.579E-01   -.208E-04 0.117E-04 0.303E-04
   -.101E+03 0.332E+02 0.198E+03   0.101E+03 -.334E+02 -.199E+03   -.480E+00 0.164E+00 0.974E+00   -.346E-04 -.625E-05 -.297E-04
   0.110E+03 0.118E+02 0.436E+02   -.110E+03 -.118E+02 -.436E+02   0.224E+00 -.275E-02 -.579E-01   0.207E-04 -.115E-04 -.304E-04
   0.102E+02 0.968E+01 0.504E+02   -.105E+02 -.975E+01 -.508E+02   0.330E+00 0.730E-01 0.332E+00   -.205E-05 -.689E-05 -.393E-04
   -.603E+01 -.203E+02 -.109E+03   0.623E+01 0.209E+02 0.112E+03   -.201E+00 -.592E+00 -.317E+01   -.258E-04 -.229E-04 -.543E-04
   -.102E+02 -.968E+01 -.504E+02   0.105E+02 0.975E+01 0.508E+02   -.330E+00 -.730E-01 -.332E+00   0.205E-05 0.684E-05 0.393E-04
   0.603E+01 0.203E+02 0.109E+03   -.623E+01 -.209E+02 -.112E+03   0.201E+00 0.592E+00 0.317E+01   0.258E-04 0.226E-04 0.544E-04
   0.557E-07 0.111E-05 -.178E-06   0.178E-13 0.426E-13 -.426E-13   0.436E-06 -.200E-05 0.435E-07   -.424E-06 0.909E-06 -.184E-07

 POSITION                                       TOTAL-FORCE (eV/Angst)
      7.22913      0.01083     -1.27758         0.000213     -0.000112     -0.000160
      3.98184      3.85991      8.99850        -0.000213      0.000112      0.000160
      2.55910      3.13146      5.32254        -0.000481      0.000419      0.000076
      1.04605      0.73671      3.79019         0.000481     -0.000420     -0.000076
      1.45504      3.57815      7.94200        -0.000099      0.000108     -0.000171
      5.07438      3.44123      6.53268        -0.000180     -0.000206     -0.000044
      2.15012      0.29001      1.17074         0.000099     -0.000108      0.000171
      6.13659      0.42951      1.18824         0.000180      0.000206      0.000044
      6.92999      3.12103      4.45828         0.000044      0.000424     -0.000196
      4.28098      0.74972      3.26265        -0.000044     -0.000424      0.000196
      3.31066      1.50553      7.52882         0.000021     -0.000202      0.000189
      7.16488      1.53262      6.96291        -0.000181      0.000021     -0.000181
      0.29450      2.36263      1.58392        -0.000021      0.000202     -0.000189
      4.04609      2.33813      0.75802         0.000181     -0.000020      0.000181
      1.83346      1.98992     -0.71585        -0.000000     -0.000000      0.000000
      5.63636      1.99121     -1.41175         0.000000     -0.000000      0.000000
      2.56367      2.68225      2.89273        -0.000007     -0.000383      0.000152
      6.20353      2.68166      2.21682         0.000113     -0.000327     -0.000029
      1.04149      1.18592      6.22000         0.000007      0.000382     -0.000151
      5.00744      1.18909      5.50411        -0.000113      0.000327      0.000029
      3.25420      3.50303      7.20326        -0.000089      0.000098      0.000046
      7.07061      3.50996      6.53535        -0.000082     -0.000109     -0.000201
      0.35096      0.36513      1.90947         0.000089     -0.000098     -0.000046
      4.14036      0.36078      1.18558         0.000082      0.000109      0.000201
    total drift:                                0.000000      0.000000     -0.000000

  FREE ENERGIE OF THE ION-ELECTRON SYSTEM (eV)
  free  energy   TOTEN  =      -124.43641081 eV

  energy  without entropy=     -124.43641081  energy(sigma->0) =     -124.43641081

 Linear response reoptimize wavefunctions
 Linear response G [H, r] |phi>, progress :
  Direction:   1

----------------------------------------- Iteration    1(   1)  ---------------------------------------

  free energy    TOTEN  =      -493.39885880 eV

[...]

 Linear response G [H, r] |phi>, progress :
  Direction:   2

[...]

 Linear response G [H, r] |phi>, progress :
  Direction:   3

[...]

  free energy    TOTEN  =      -709.79838516 eV

[...]

 Linear response to external field (no local field effect), progress :
  Direction:   1

[...]

 Free energy of the ion-electron system (eV)
  -Hartree energ DENC   =         0.00000000
  -V(xc)+E(xc)   XCENC  =         0.00000000
  PAW double counting   =         0.00000000        0.00000000
  entropy T*S    EENTRO =         0.00000000
  eigenvalues    EBANDS =        -2.85007253
  free energy    TOTEN  =        -2.85007253 eV

  energy without entropy =       -2.85007253

[...]

 change of polarisation eV/A/(eV/A) component  1 :     9.355     0.041     0.103
 dielectric tensor                  component  1 :     6.322     0.023     0.058

[...]

 Linear response to external field (no local field effect), progress :
  Direction:   3

[...]

 HEAD OF MICROSCOPIC STATIC DIELECTRIC TENSOR (INDEPENDENT PARTICLE, excluding Hartree and local field effects)
           6.321706     0.023182     0.058415
           0.023182     5.964833     0.050421
           0.058415     0.050421     6.214388

 Linear response to external field, progress :
  Direction:   1

[...]

 PIEZOELECTRIC TENSOR FIELD DIRECTION 1  (e Angst)
     0.00086  0.00103 -0.00023           (  0.00000 -0.00008  0.00001)
     0.00101  0.00078  0.00048           ( -0.00008 -0.00000  0.00001)
    -0.00025  0.00050  0.00093           (  0.00001  0.00001  0.00001)

 PIEZOELECTRIC TENSOR FIELD DIRECTION 1  (C/m^2)
     0.00004  0.00005 -0.00001
     0.00005  0.00004  0.00002
    -0.00001  0.00003  0.00005

      POSITION         DIRECTION 1           BORN EFFECTIVE CHARGE    (rigid.aug.   ionic)
      7.22913      0.01083     -1.27758     1.15935 -0.00579 -0.01386 ( -0.95224  3.00000)
      3.98184      3.85991      8.99850     1.15937 -0.00581 -0.01386 ( -0.95224  3.00000)
      2.55910      3.13146      5.32254     1.32594 -0.03025 -0.17451 ( -0.97171  3.00000)
      1.04605      0.73671      3.79019     1.32595 -0.03026 -0.17451 ( -0.97171  3.00000)
      1.45504      3.57815      7.94200     0.96648  0.01558  0.14770 ( -0.94695  3.00000)
      5.07438      3.44123      6.53268     0.92082 -0.02733 -0.07973 ( -0.94141  3.00000)
      2.15012      0.29001      1.17074     0.96648  0.01559  0.14770 ( -0.94695  3.00000)
      6.13659      0.42951      1.18824     0.92082 -0.02733 -0.07974 ( -0.94141  3.00000)
      6.92999      3.12103      4.45828     1.91189  0.03691  0.27936 ( -8.50284 14.00000)
      4.28098      0.74972      3.26265     1.91192  0.03689  0.27935 ( -8.50284 14.00000)
      3.31066      1.50553      7.52882     2.52827 -0.01309 -0.02819 ( -8.50235 14.00000)
      7.16488      1.53262      6.96291     2.23659  0.00360  0.10089 ( -8.50421 14.00000)
      0.29450      2.36263      1.58392     2.52828 -0.01303 -0.02825 ( -8.50235 14.00000)
      4.04609      2.33813      0.75802     2.23666  0.00352  0.10083 ( -8.50421 14.00000)
      1.83346      1.98992     -0.71585    -2.53210 -0.05023 -0.14454 (  0.81622  6.00000)
      5.63636      1.99121     -1.41175    -2.55948 -0.01653  0.03817 (  0.81607  6.00000)
      2.56367      2.68225      2.89273    -2.32407 -0.00328  0.00357 (  0.81604  6.00000)
      6.20353      2.68166      2.21682    -2.17295 -0.01956 -0.04694 (  0.81739  6.00000)
      1.04149      1.18592      6.22000    -2.32403 -0.00331  0.00365 (  0.81604  6.00000)
      5.00744      1.18909      5.50411    -2.17293 -0.01957 -0.04686 (  0.81739  6.00000)
      3.25420      3.50303      7.20326    -2.15909  0.06706  0.09724 ( -0.63957  6.00000)
      7.07061      3.50996      6.53535    -1.84816  0.00979 -0.23065 ( -0.63753  6.00000)
      0.35096      0.36513      1.90947    -2.15911  0.06700  0.09715 ( -0.63957  6.00000)
      4.14036      0.36078      1.18558    -1.84820  0.00978 -0.23070 ( -0.63753  6.00000)
    total drift (improves with k-points):  -0.00129  0.00038  0.00326

[...]

 Linear response to external field, progress :
  Direction:   3

[...]

----------------------------------------- Iteration    3(  35)  ---------------------------------------

 Broyden mixing:
  rms(total) = 0.75015E-06    rms(broyden)= 0.66098E-06
  rms(prec ) = 0.72479E-06
  weight for this iteration     100.00

 eigenvalues of (default mixing * dielectric matrix)
  average eigenvalue GAMMA=   3.6795
 27.9212 22.5991 15.9513 13.2525  4.9662  4.3849  3.0244  2.6799  2.5030  2.5030
  2.0830  1.8578  1.4688  1.3228  1.1963  1.0402  1.0402  0.9168  0.9168  0.8508
  0.8508  0.7692  0.7692  0.7237  0.7237  0.7036  0.6634  0.6634  0.6242  0.6242
  0.6256  0.6158  0.5886

 Free energy of the ion-electron system (eV)
  -Hartree energ DENC   =        -0.53373133
  -V(xc)+E(xc)   XCENC  =         0.03389283
  PAW double counting   =         2.52966755       -2.38792147
  entropy T*S    EENTRO =         0.00000000
  eigenvalues    EBANDS =        -4.36523444
  free energy    TOTEN  =        -4.72332686 eV

  energy without entropy =       -4.72332686

------------------------ aborting loop because EDIFF is reached ----------------------------------------

 change of polarisation eV/A/(eV/A) component  3 :     0.155     0.081     8.595
 dielectric tensor                  component  3 :     0.088     0.046     5.890

 PIEZOELECTRIC TENSOR FIELD DIRECTION 3  (e Angst)
    -0.00002  0.00003  0.00020           ( -0.00001  0.00000 -0.00001)
     0.00003  0.00185  0.00154           (  0.00000 -0.00002  0.00011)
     0.00017  0.00153 -0.00023           ( -0.00001  0.00011 -0.00001)

 PIEZOELECTRIC TENSOR FIELD DIRECTION 3  (C/m^2)
    -0.00000  0.00000  0.00001
     0.00000  0.00009  0.00008
     0.00001  0.00008 -0.00001

      POSITION         DIRECTION 3           BORN EFFECTIVE CHARGE    (rigid.aug.   ionic)
      7.22913      0.01083     -1.27758    -0.03924 -0.04297  1.02224 ( -0.95224  3.00000)
      3.98184      3.85991      8.99850    -0.03926 -0.04295  1.02222 ( -0.95224  3.00000)
      2.55910      3.13146      5.32254    -0.12346 -0.01448  1.20967 ( -0.97171  3.00000)
      1.04605      0.73671      3.79019    -0.12339 -0.01446  1.20961 ( -0.97171  3.00000)
      1.45504      3.57815      7.94200     0.10897 -0.03746  1.08191 ( -0.94695  3.00000)
      5.07438      3.44123      6.53268    -0.06278 -0.01809  1.20381 ( -0.94141  3.00000)
      2.15012      0.29001      1.17074     0.10892 -0.03744  1.08191 ( -0.94695  3.00000)
      6.13659      0.42951      1.18824    -0.06271 -0.01811  1.20380 ( -0.94141  3.00000)
      6.92999      3.12103      4.45828     0.40713  0.02460  2.41372 ( -8.50284 14.00000)
      4.28098      0.74972      3.26265     0.40693  0.02470  2.41358 ( -8.50284 14.00000)
      3.31066      1.50553      7.52882    -0.16927 -0.09217  2.28387 ( -8.50235 14.00000)
      7.16488      1.53262      6.96291     0.14064 -0.04834  2.38300 ( -8.50421 14.00000)
      0.29450      2.36263      1.58392    -0.16928 -0.09211  2.28374 ( -8.50235 14.00000)
      4.04609      2.33813      0.75802     0.14067 -0.04856  2.38311 ( -8.50421 14.00000)
      1.83346      1.98992     -0.71585    -0.13476 -0.12335 -2.49229 (  0.81622  6.00000)
      5.63636      1.99121     -1.41175     0.15609 -0.11797 -2.53289 (  0.81607  6.00000)
      2.56367      2.68225      2.89273    -0.02970  0.04496 -1.96270 (  0.81604  6.00000)
      6.20353      2.68166      2.21682    -0.14455 -0.14132 -2.58891 (  0.81739  6.00000)
      1.04149      1.18592      6.22000    -0.02950  0.04485 -1.96254 (  0.81604  6.00000)
      5.00744      1.18909      5.50411    -0.14432 -0.14114 -2.58864 (  0.81739  6.00000)
      3.25420      3.50303      7.20326    -0.00535  0.28901 -2.02362 ( -0.63957  6.00000)
      7.07061      3.50996      6.53535    -0.09178  0.15789 -2.50678 ( -0.63753  6.00000)
      0.35096      0.36513      1.90947    -0.00532  0.28896 -2.02365 ( -0.63957  6.00000)
      4.14036      0.36078      1.18558    -0.09166  0.15797 -2.50667 ( -0.63753  6.00000)
    total drift (improves with k-points):   0.00301  0.00202  0.00752

 MACROSCOPIC STATIC DIELECTRIC TENSOR (including local field effects in DFT)
           6.027179     0.028817     0.087959
           0.028817     5.667591     0.046331
           0.087959     0.046331     5.889709

 MACROSCOPIC STATIC DIELECTRIC TENSOR (including local field effects in DFT)
           6.027179     0.028817     0.087959
           0.028817     5.667591     0.046331
           0.087959     0.046331     5.889709

 PIEZOELECTRIC TENSOR  for field in x, y, z        (e  Angst)
          XX          YY          ZZ          XY          YZ          ZX
  x     0.00086     0.00078     0.00093     0.00101     0.00050    -0.00023
  y     0.00095    -0.00281     0.00122     0.00015     0.00117     0.00035
  z    -0.00002     0.00185    -0.00023     0.00003     0.00153     0.00020

 PIEZOELECTRIC TENSOR  for field in x, y, z        (C/m^2)
          XX          YY          ZZ          XY          YZ          ZX
  x     0.00004     0.00004     0.00005     0.00005     0.00003    -0.00001
  y     0.00005    -0.00014     0.00006     0.00001     0.00006     0.00002
  z    -0.00000     0.00009    -0.00001     0.00000     0.00008     0.00001

 BORN EFFECTIVE CHARGES (in e, cummulative output)
 ion    1
    1     1.15941    -0.00580    -0.01399
    2    -0.01028     1.23956    -0.04227
    3    -0.03937    -0.04306     1.02192
 ion    2
    1     1.15942    -0.00583    -0.01400
    2    -0.01029     1.23955    -0.04224
    3    -0.03938    -0.04304     1.02191
 ion    3
    1     1.32600    -0.03026    -0.17465
    2    -0.02080     1.26148    -0.01629
    3    -0.12358    -0.01457     1.20935
 ion    4
    1     1.32600    -0.03027    -0.17465
    2    -0.02081     1.26149    -0.01622
    3    -0.12352    -0.01455     1.20930
 ion    5
    1     0.96653     0.01556     0.14756
    2     0.00846     1.29754    -0.03621
    3     0.10884    -0.03755     1.08159
 ion    6
    1     0.92088    -0.02735    -0.07987
    2    -0.02423     1.28591    -0.01870
    3    -0.06291    -0.01817     1.20350
 ion    7
    1     0.96653     0.01557     0.14757
    2     0.00847     1.29754    -0.03624
    3     0.10879    -0.03752     1.08160
 ion    8
    1     0.92088    -0.02734    -0.07987
    2    -0.02426     1.28588    -0.01875
    3    -0.06283    -0.01820     1.20349
 ion    9
    1     1.91194     0.03690     0.27922
    2     0.05984     2.36287     0.02053
    3     0.40701     0.02452     2.41341
 ion   10
    1     1.91197     0.03687     0.27921
    2     0.05999     2.36289     0.02059
    3     0.40680     0.02462     2.41327
 ion   11
    1     2.52832    -0.01310    -0.02832
    2    -0.03913     2.73706    -0.08751
    3    -0.16940    -0.09225     2.28356
 ion   12
    1     2.23664     0.00359     0.10075
    2     0.01109     2.66551    -0.05062
    3     0.14051    -0.04842     2.38269
 ion   13
    1     2.52834    -0.01304    -0.02838
    2    -0.03912     2.73705    -0.08756
    3    -0.16941    -0.09219     2.28342
 ion   14
    1     2.23672     0.00350     0.10070
    2     0.01115     2.66549    -0.05040
    3     0.14054    -0.04864     2.38280
 ion   15
    1    -2.53205    -0.05024    -0.14468
    2    -0.04805    -1.87432    -0.12395
    3    -0.13488    -0.12344    -2.49260
 ion   16
    1    -2.55942    -0.01654     0.03804
    2     0.00533    -1.89004    -0.12182
    3     0.15597    -0.11806    -2.53320
 ion   17
    1    -2.32401    -0.00329     0.00343
    2    -0.00943    -2.20290     0.04586
    3    -0.02983     0.04487    -1.96301
 ion   18
    1    -2.17289    -0.01957    -0.04708
    2    -0.03795    -1.87775    -0.13784
    3    -0.14468    -0.14141    -2.58923
 ion   19
    1    -2.32398    -0.00332     0.00351
    2    -0.00952    -2.20298     0.04581
    3    -0.02963     0.04477    -1.96285
 ion   20
    1    -2.17287    -0.01958    -0.04699
    2    -0.03779    -1.87781    -0.13807
    3    -0.14445    -0.14122    -2.58895
 ion   21
    1    -2.15903     0.06704     0.09710
    2     0.04801    -3.53533     0.29249
    3    -0.00547     0.28892    -2.02393
 ion   22
    1    -1.84810     0.00978    -0.23079
    2     0.03570    -3.35162     0.15354
    3    -0.09190     0.15781    -2.50709
 ion   23
    1    -2.15906     0.06699     0.09701
    2     0.04799    -3.53534     0.29256
    3    -0.00545     0.28888    -2.02396
 ion   24
    1    -1.84815     0.00976    -0.23083
    2     0.03565    -3.35173     0.15331
    3    -0.09178     0.15789    -2.50699