 vasp.6.2.0 18Jan21 (build Feb  9 2021 11:43:09) complex
 executed on       CrayXC_GCC_OMP date 2021.04.29  15:01:22

 INCAR:
   AEXX = 0.25
   ALGO = all
   EDIFF = 2.4e-05
   EDIFFG = -0.03
   ENCUT = 520
   GGA = pe
   HFSCREEN = 0.207
   IBRION = 2
   ISIF = 3
   ISMEAR = 0
   ISPIN = 2
   KPAR = 18
   LASPH = .TRUE.
   LHFCALC = .TRUE.
   LMAXFOCK = 4
   LORBIT = 11
   LREAL = .FALSE.
   LVHAR = .TRUE.
   LWAVE = .TRUE.
   MAGMOM = 0.6 0.6 0.6 0.6 0.6 0.6 0.6 0.6 5 5 5 5 5 5 0.6 0.6 0.6 0.6 0.6 0.6 0.6 0.6 0.6 0.6
   NCORE = 8
   NEDOS = 2000
   NELM = 200
   NELMIN = 4
   NSW = 60
   NWRITE = 1
   PREC = accurate
   PRECFOCK = fast
   SIGMA = 0.05
   TIME = 0.3

 POTCAR:    PAW_PBE Li_sv 10Sep2004
 POTCAR:    PAW_PBE Fe_pv 02Aug2007
 POTCAR:    PAW_PBE S 06Sep2000
 POTCAR:    PAW_PBE O 08Apr2002
 POTCAR:    PAW_PBE Li_sv 10Sep2004

 POTCAR:    PAW_PBE Fe_pv 02Aug2007

 POTCAR:    PAW_PBE S 06Sep2000

 POTCAR:    PAW_PBE O 08Apr2002

  PAW_PBE Li_sv 10Sep2004               :
  PAW_PBE Fe_pv 02Aug2007               :
  PAW_PBE S 06Sep2000                   :
  PAW_PBE O 08Apr2002                   :

 POSCAR: # Compound: Li8Fe6S6O4. Old comment: Li4
  positions in direct lattice
 exchange correlation table for  LEXCH =        8
   RHO(1)=    0.500       N(1)  =     2000
   RHO(2)=  100.500       N(2)  =     4000

 ion  position               nearest neighbor table
   1  0.954  0.002  0.004-  23 1.97  22 2.03  16 2.56  16 2.56
   2  0.546  0.998  0.996-  21 1.97  24 2.03  16 2.56  16 2.56
   3  0.360  0.804  0.607-  21 2.04  17 2.47  19 2.65  19 2.65
   4  0.140  0.196  0.393-  23 2.04  19 2.47  17 2.65  17 2.65
   5  0.214  0.921  0.843-  21 1.94  22 1.98  15 2.58  15 2.58
   6  0.690  0.887  0.775-  21 1.94  22 1.99  20 2.49  20 2.49
   7  0.286  0.079  0.157-  23 1.94  24 1.98  15 2.58  15 2.58
   8  0.810  0.113  0.225-  23 1.94  24 1.99  18 2.49  18 2.49
   9  0.930  0.801  0.601-  22 2.12  18 2.40  19 2.61  19 2.61
  10  0.570  0.199  0.399-  24 2.12  20 2.40  17 2.61  17 2.61
  11  0.449  0.401  0.802-  21 2.02  21 2.02  19 2.64  20 2.66  15 2.79
  12  0.956  0.407  0.815-  22 2.02  22 2.02  19 2.62  20 2.63  15 2.69  16 2.72
  13  0.051  0.599  0.198-  23 2.02  23 2.02  17 2.64  18 2.66  15 2.79
  14  0.544  0.593  0.185-  24 2.02  24 2.02  17 2.62  18 2.63  15 2.69  16 2.72
  15  0.250  0.500  0.000-   5 2.58   7 2.58   7 2.58   5 2.58  14 2.69  12 2.69  11 2.79  13 2.79

  16  0.750  0.500  0.000-   1 2.56   2 2.56   1 2.56   2 2.56  14 2.72  12 2.72
  17  0.352  0.684  0.368-   3 2.47  10 2.61  10 2.61  14 2.62  13 2.64   4 2.65   4 2.65
  18  0.831  0.684  0.367-   9 2.40   8 2.49   8 2.49  14 2.63  13 2.66
  19  0.148  0.316  0.632-   4 2.47   9 2.61   9 2.61  12 2.62  11 2.64   3 2.65   3 2.65
  20  0.669  0.316  0.633-  10 2.40   6 2.49   6 2.49  12 2.63  11 2.66
  21  0.450  0.903  0.806-   5 1.94   6 1.94   2 1.97  11 2.02  11 2.02   3 2.04
  22  0.953  0.904  0.808-   5 1.98   6 1.99  12 2.02  12 2.02   1 2.03   9 2.12
  23  0.050  0.097  0.194-   7 1.94   8 1.94   1 1.97  13 2.02  13 2.02   4 2.04
  24  0.547  0.096  0.192-   7 1.98   8 1.99  14 2.02  14 2.02   2 2.03  10 2.12

  LATTYP: Found a base centered monoclinic cell.
 ALAT       =    20.7158459826
 B/A-ratio  =     0.1951766967
 C/A-ratio  =     0.3738374397
 COS(beta)  =    -0.1899729538

  Lattice vectors:

 A1 = (  -0.1836549400,   3.8664844600,   9.8178463000)
 A2 = (  -0.0478291200,  -0.1071026000,  10.5527142700)
 A3 = (   7.6150022000,  -0.0003825800,  -1.4095513200)

Analysis of symmetry for initial positions (statically):
 Subroutine PRICEL returns:
 Original cell was already a primitive cell.

 Routine SETGRP: Setting up the symmetry group for a
 base centered monoclinic supercell.

 Subroutine GETGRP returns: Found  4 space group operations
 (whereof  2 operations were pure point group operations)
 out of a pool of  4 trial point group operations.

The static configuration has the point symmetry C_1h.
 The point group associated with its full space group is C_2h.

Analysis of symmetry for dynamics (positions and initial velocities):
 Subroutine PRICEL returns:
 Original cell was already a primitive cell.

[...]

The dynamic configuration has the point symmetry C_1h.
 The point group associated with its full space group is C_2h.

Analysis of structural, dynamic, and magnetic symmetry:
 Subroutine PRICEL returns:
 Original cell was already a primitive cell.

 Routine SETGRP: Setting up the symmetry group for a
 base centered monoclinic supercell.

 Subroutine GETGRP returns: Found  4 space group operations
 (whereof  2 operations were pure point group operations)
 out of a pool of  4 trial point group operations.

The overall configuration has the point symmetry C_1h.
 The point group associated with its full space group is C_2h.

 Subroutine INISYM returns: Found  4 space group operations
 (whereof  2 operations are pure point group operations),
 and found     1 'primitive' translations

                                     Primitive cell

  volume of cell :     318.4249

  direct lattice vectors                    reciprocal lattice vectors
     7.615002200 -0.000382580 -1.409551320     0.131438893  0.004611696  0.000642539
    -0.135825820  3.973587060 -0.734867970     0.000486783  0.252152117  0.002561372
    -0.047829120 -0.107102600 10.552714270     0.017590506  0.018175318  0.095026544

  length of vectors
     7.744358823  4.043250389 10.553366148     0.131521341  0.252165595  0.098335203

  position of ions in fractional coordinates (direct lattice)
     0.954457980  0.002044830  0.004089650
     0.545542020  0.997955170  0.995910350
     0.360483250  0.803587340  0.607174670
     0.139516750  0.196412660  0.392825330
     0.213610910  0.921470010  0.842940030
     0.690334410  0.887459700  0.774919400
     0.286389090  0.078529990  0.157059970
     0.809665590  0.112540300  0.225080600
     0.930020390  0.800530900  0.601061800
     0.569979610  0.199469100  0.398938200
     0.449008120  0.400929100  0.801858200
     0.955568190  0.407318810  0.814637620
     0.050991880  0.599070900  0.198141800
     0.544431810  0.592681190  0.185362380
     0.250000000  0.500000000  1.000000000
     0.750000000  0.500000000  1.000000000
     0.352344080  0.684042710  0.368085430
     0.831394510  0.683687300  0.367374590
     0.147655920  0.315957290  0.631914570
     0.668605490  0.316312700  0.632625410
     0.450330580  0.902893750  0.805787490
     0.952627440  0.904100040  0.808200080
     0.049669420  0.097106250  0.194212510
     0.547372560  0.095899960  0.191799920

  ion indices of the primitive-cell ions
   primitive index   ion index
                 1           1
                 2           2
                 3           3
                 4           4
                 5           5
                 6           6
                 7           7
                 8           8
                 9           9
                10          10
                11          11
                12          12
                13          13
                14          14
                15          15
                16          16
                17          17
                18          18
                19          19
                20          20
                21          21
                22          22
                23          23
                24          24

 KPOINTS: # No comment

Automatic generation of k-mesh.
 Grid dimensions read from file:
 generate k-points for:    3    6    2

 Generating k-lattice:

  Cartesian coordinates                     Fractional coordinates (reciprocal lattice)
     0.043812964  0.001537232  0.000214180     0.333333333  0.000000000 -0.000000000
     0.000081131  0.042025353  0.000426895     0.000000000  0.166666667 -0.000000000
     0.008795253  0.009087659  0.047513272    -0.000000000  0.000000000  0.500000000

  Length of vectors
     0.043840447  0.042027599  0.049167601

  Shift w.r.t. Gamma in fractional coordinates (k-lattice)
     0.000000000  0.000000000  0.000000000

 WARNING: IBZKPT: internal override: KBLOWUP is changed to .FALSE.
      ... skipping the blow-up phase ...

 Subroutine IBZKPT returns following result:

 Found     18 irreducible k-points:

 Following reciprocal coordinates:
            Coordinates               Weight
  0.000000  0.000000  0.000000      1.000000
  0.333333  0.000000  0.000000      2.000000
  0.000000  0.166667  0.000000      2.000000
  0.333333  0.166667  0.000000      2.000000
 -0.333333  0.166667  0.000000      2.000000
  0.000000  0.333333  0.000000      2.000000
  0.333333  0.333333  0.000000      2.000000
 -0.333333  0.333333  0.000000      2.000000
  0.000000  0.500000  0.000000      2.000000
  0.333333  0.500000  0.000000      4.000000
  0.000000  0.000000  0.500000      1.000000
  0.333333  0.000000  0.500000      2.000000
  0.000000  0.166667  0.500000      2.000000
  0.333333  0.166667  0.500000      2.000000
 -0.333333  0.166667  0.500000      2.000000
  0.000000  0.333333  0.500000      2.000000
  0.333333  0.333333  0.500000      2.000000
 -0.333333  0.333333  0.500000      2.000000

 Following cartesian coordinates:
            Coordinates               Weight
  0.000000  0.000000  0.000000      1.000000
  0.043813  0.001537  0.000214      2.000000
  0.000081  0.042025  0.000427      2.000000
  0.043894  0.043563  0.000641      2.000000
 -0.043732  0.040488  0.000213      2.000000
  0.000162  0.084051  0.000854      2.000000
  0.043975  0.085588  0.001068      2.000000
 -0.043651  0.082513  0.000640      2.000000
  0.000243  0.126076  0.001281      2.000000
  0.044056  0.127613  0.001495      4.000000
  0.008795  0.009088  0.047513      1.000000
  0.052608  0.010625  0.047727      2.000000
  0.008876  0.051113  0.047940      2.000000
  0.052689  0.052650  0.048154      2.000000
 -0.034937  0.049576  0.047726      2.000000
  0.008958  0.093138  0.048367      2.000000
  0.052770  0.094676  0.048581      2.000000
 -0.034855  0.091601  0.048153      2.000000

 WARNING: full set of k-points will be restricted to regular points only.

 Subroutine IBZKPT_HF returns following result:

 Found     36 k-points in 1st BZ
 the following     36 k-points will be used (e.g. in the exchange kernel)
 Following reciprocal coordinates:   # in IRBZ
  0.000000  0.000000  0.000000    0.02777778   1 t-inv F
  0.333333  0.000000  0.000000    0.02777778   2 t-inv F
  0.000000  0.166667  0.000000    0.02777778   3 t-inv F
  0.333333  0.166667  0.000000    0.02777778   4 t-inv F
 -0.333333  0.166667  0.000000    0.02777778   5 t-inv F
  0.000000  0.333333  0.000000    0.02777778   6 t-inv F
  0.333333  0.333333  0.000000    0.02777778   7 t-inv F
 -0.333333  0.333333  0.000000    0.02777778   8 t-inv F
  0.000000  0.500000  0.000000    0.02777778   9 t-inv F
  0.333333  0.500000  0.000000    0.02777778  10 t-inv F
  0.000000  0.000000  0.500000    0.02777778  11 t-inv F
  0.333333  0.000000  0.500000    0.02777778  12 t-inv F
  0.000000  0.166667  0.500000    0.02777778  13 t-inv F
  0.333333  0.166667  0.500000    0.02777778  14 t-inv F
 -0.333333  0.166667  0.500000    0.02777778  15 t-inv F
[...]

 Conjugate gradient step on ions:
 trial-energy change:   -0.027699  1 .order   -0.027476   -0.039388   -0.015563
  (g-gl).g = 0.372E-01      g.g   = 0.370E-01  gl.gl    = 0.173E+00
 g(Force)  = 0.551E-02   g(Stress)= 0.315E-01 ortho     =-0.122E-03
 gamma     =   0.21518
 trial     =   1.06405
 opt step  =   1.70180  (harmonic =   1.75913) maximal distance =0.01307484
 next E    =  -177.233466   (d E  =  -0.03241)

[...]

 d Force =-0.2772518E-04[-0.280E-04,-0.274E-04]  d Energy = 0.3558746E-04-0.633E-04
 d Force =-0.3805492E-02[-0.384E-02,-0.377E-02]  d Ewald  =-0.1131283E+00 0.109E+00

[...]

 d Force = 0.1870457E-02[ 0.118E-02, 0.256E-02]  d Energy = 0.1984066E-02-0.114E-03
 d Force =-0.2112850E+01[-0.215E+01,-0.208E+01]  d Ewald  =-0.5433106E+01 0.332E+01

 Conjugate gradient step on ions:
 trial-energy change:   -0.001984  1 .order   -0.001938   -0.002700   -0.001176
  (g-gl).g = 0.175E-02      g.g   = 0.226E-02  gl.gl    = 0.370E-01
 g(Force)  = 0.206E-02   g(Stress)= 0.195E-03 ortho     =-0.440E-03
 gamma     =   0.04729
 trial     =   1.20822
 opt step  =   2.14094  (harmonic =   2.14094) maximal distance =0.00794257
 next E    =  -177.236466   (d E  =  -0.00239)

[...]

 d Force = 0.5549351E-03[ 0.198E-03, 0.912E-03]  d Energy = 0.6207503E-03-0.658E-04
 d Force =-0.1676724E+01[-0.170E+01,-0.166E+01]  d Ewald  =-0.4236997E+01 0.256E+01

 writing wavefunctions

[...]

 eigenvalue-minimisations  :     0
 total energy-change (2. order) : 0.3094754E-01  (-0.1978923E-01)
 number of electron     168.0000010 magnetization      23.9999997
 augmentation part       56.3564875 magnetization      16.0295541

[...]

--------------------------------------- Iteration     10(   9)  ---------------------------------------

 eigenvalue-minimisations  :     0
 total energy-change (2. order) :-0.1286164E-04  (-0.7513360E-05)
 number of electron     168.0000009 magnetization      23.9999997
 augmentation part       56.3812229 magnetization      16.0245685

  free energy =  -0.177237379836E+03  energy without entropy=  -0.177237379836E+03

  average scaling for gradient   1.0014

 average (electrostatic) potential at core
  the test charge radii are     0.7079  0.9500  0.9698  0.7215
  (the norm of the test charge is              1.0000)
       1 -53.3831       2 -53.3831       3 -53.6513       4 -53.6513       5 -53.0862
       6 -53.0290       7 -53.0862       8 -53.0290       9 -71.6991      10 -71.6991
      11 -71.3164      12 -71.6257      13 -71.3164      14 -71.6257      15 -82.1098
      16 -82.0739      17 -82.0948      18 -82.1171      19 -82.0948      20 -82.1171
      21 -62.9128      22 -63.9568      23 -62.9128      24 -63.9568

 E-fermi :   5.0377     XC(G=0):  -8.5612     alpha+bet :-12.6767

 Fermi energy:         5.0376602644

[...]

 k-point    18 :      -0.3333    0.3333    0.5000
  band No.  band energies     occupation
      1     -56.3639      1.00000
      2     -56.3638      1.00000
      3     -56.3178      1.00000
      4     -56.3178      1.00000
      5     -56.1732      1.00000
      6     -56.1732      1.00000
      7     -54.8999      1.00000
      8     -54.8997      1.00000
      9     -54.8055      1.00000
     10     -54.8055      1.00000
     11     -54.7733      1.00000
     12     -54.7730      1.00000
     13     -54.7669      1.00000
     14     -54.7668      1.00000
     15     -54.4509      1.00000
     16     -54.4509      1.00000
     17     -54.2831      1.00000
     18     -54.2831      1.00000
     19     -43.8622      1.00000
     20     -43.8604      1.00000
     21     -43.6043      1.00000
     22     -43.6003      1.00000
     23     -43.3112      1.00000
     24     -43.3090      1.00000
     25     -43.2575      1.00000
     26     -43.2570      1.00000
     27     -16.1604      1.00000
     28     -16.1602      1.00000
     29     -14.9659      1.00000
     30     -14.9652      1.00000
     31      -9.3167      1.00000
     32      -9.2404      1.00000
     33      -9.0691      1.00000
     34      -8.9034      1.00000
     35      -8.8062      1.00000
     36      -8.7460      1.00000
     37      -3.2703      1.00000
     38      -3.1869      1.00000
     39      -2.6529      1.00000
     40      -2.5241      1.00000
     41      -2.2058      1.00000
     42      -2.1815      1.00000
     43      -2.0641      1.00000
     44      -2.0380      1.00000
     45      -1.6218      1.00000
     46      -1.4862      1.00000
     47      -1.4764      1.00000
     48      -1.4117      1.00000
     49      -1.3923      1.00000
     50      -1.3425      1.00000
     51      -1.2191      1.00000
     52      -1.1663      1.00000
     53      -1.1009      1.00000
     54      -1.0209      1.00000
     55      -0.9069      1.00000
     56      -0.8834      1.00000
     57      -0.8283      1.00000
     58      -0.7942      1.00000
     59      -0.7392      1.00000
     60      -0.5632      1.00000
[...]
    106      11.4973      0.00000
    107      11.9014      0.00000
    108      11.9387      0.00000
    109      12.2148      0.00000
    110      12.3020      0.00000
    111      12.3510      0.00000
    112      12.6048      0.00000
    113      12.6603      0.00000
    114      12.7410      0.00000
    115      12.9301      0.00000
    116      13.1115      0.00000
    117      13.2426      0.00000
    118      13.3936      0.00000
    119      13.6422      0.00000
    120      13.7627      0.00000
 Fermi energy:         5.0376602644

 spin component 2

[...]

 k-point    18 :      -0.3333    0.3333    0.5000
  band No.  band energies     occupation
      1     -49.7182      1.00000
      2     -49.7178      1.00000
      3     -49.6715      1.00000
      4     -49.6712      1.00000
      5     -49.6699      1.00000
      6     -49.6697      1.00000
      7     -49.6066      1.00000
      8     -49.6064      1.00000
      9     -49.6012      1.00000
     10     -49.6012      1.00000
     11     -49.5929      1.00000
     12     -49.5926      1.00000
     13     -49.4961      1.00000
     14     -49.4959      1.00000
     15     -49.3190      1.00000
     16     -49.3188      1.00000
     17     -49.1246      1.00000
     18     -49.1246      1.00000
     19     -43.8544      1.00000
     20     -43.8526      1.00000
     21     -43.6056      1.00000
     22     -43.6016      1.00000
     23     -43.3160      1.00000
     24     -43.3138      1.00000
     25     -43.2584      1.00000
     26     -43.2579      1.00000
     27     -15.6749      1.00000
     28     -15.6745      1.00000
     29     -14.7475      1.00000
     30     -14.7469      1.00000
     31      -9.0106      1.00000
     32      -8.9479      1.00000
     33      -8.7718      1.00000
     34      -8.5854      1.00000
     35      -8.5042      1.00000
     36      -8.4333      1.00000
     37      -1.9531      1.00000
     38      -1.6783      1.00000
     39      -1.3238      1.00000
     40      -1.2175      1.00000
     41      -0.9776      1.00000
     42      -0.9198      1.00000
     43      -0.6599      1.00000
     44      -0.6158      1.00000
     45      -0.2323      1.00000
     46      -0.1435      1.00000
     47       0.0103      1.00000
     48       0.0884      1.00000
     49       0.3845      1.00000
     50       0.5246      1.00000
     51       0.7063      1.00000
     52       0.9037      1.00000
     53       0.9620      1.00000
     54       1.0446      1.00000
     55       1.1957      1.00000
     56       1.3273      1.00000
     57       1.5182      1.00000
     58       1.6529      1.00000
     59       1.8253      1.00000
     60       1.8298      1.00000
[...]
    106      12.4998      0.00000
    107      12.6249      0.00000
    108      12.7325      0.00000
    109      12.9287      0.00000
    110      13.1159      0.00000
    111      13.1694      0.00000
    112      13.2402      0.00000
    113      13.2497      0.00000
    114      13.3957      0.00000
    115      13.6752      0.00000
    116      13.7164      0.00000
    117      13.7694      0.00000
    118      13.9282      0.00000
    119      14.1595      0.00000
    120      14.3789      0.00000

[...]

 soft charge-density along one line, spin component           2
         0         1         2         3         4         5         6         7         8         9
 total charge-density along one line

------------------------ aborting loop because EDIFF is reached ----------------------------------------

[...]

  FORCE on cell =-STRESS in cart. coord.  units (eV):
  Direction    XX          YY          ZZ          XY          YZ          ZX
  Alpha Z   457.40635   457.40635   457.40635
  Ewald   -4650.96659 -2422.02833 -4396.64578   -46.89531  -372.35420   171.42651
  Hartree  1619.47447  3331.72055  1619.61212   -38.84601  -323.92048   117.81159
  E(xc)    -682.41326  -681.61366  -681.78241    -0.01062    -0.02921     0.09094
  Local     308.30909 -3577.81974   145.10110    85.44728   703.47867  -281.00475
  n-local   593.45339   603.53147   593.55132    -0.10202    -1.87693     1.36601
  augment   853.92080   826.48910   797.60098    -0.05411    -5.70056    -5.08009
  Kinetic  2211.10742  2160.54948  2152.49423     0.43950    -1.81360    -6.86855
  Fock     -710.26094  -698.20690  -687.27027     0.03112     2.16904     2.27713
  Total       0.03124     0.04674     0.04871     0.00199     0.00088     0.01827
  in kB       0.16181     0.24212     0.25233     0.01033     0.00455     0.09464

 VOLUME and BASIS-vectors are now :
  energy-cutoff  :      520.00
  volume of cell :      309.32
      direct lattice vectors                 reciprocal lattice vectors
     7.429010236  0.002223808 -1.361081088     0.134639268  0.004635797  0.000181331
    -0.137261162  4.015578009 -0.742633700     0.000610614  0.249742855  0.003740880
    -0.008643578 -0.155758540 10.399921102     0.017664406  0.018440251  0.096445435

  length of vectors
     7.552664414  4.085977506 10.401091018     0.134719174  0.249771617  0.099768712

 FORCES acting on ions:
    Electron-Ion                     Ewald-Force                    Non-Local-Force
   0.189E+02 -.695E+00 -.725E+01   -.189E+02 0.919E+00 0.845E+01   -.848E-01 -.228E+00 -.122E+01
   -.189E+02 0.695E+00 0.725E+01   0.189E+02 -.919E+00 -.845E+01   0.848E-01 0.228E+00 0.122E+01
   0.225E+02 0.178E+02 0.922E+02   -.224E+02 -.176E+02 -.910E+02   -.125E+00 -.213E+00 -.113E+01
   -.225E+02 -.178E+02 -.922E+02   0.224E+02 0.176E+02 0.910E+02   0.125E+00 0.213E+00 0.113E+01
   -.177E+02 -.471E+01 -.222E+02   0.190E+02 0.466E+01 0.217E+02   -.125E+01 0.584E-01 0.546E+00
   0.292E+02 0.386E+01 0.155E+02   -.305E+02 -.389E+01 -.154E+02   0.134E+01 0.267E-01 -.104E+00
   0.177E+02 0.471E+01 0.222E+02   -.190E+02 -.466E+01 -.217E+02   0.125E+01 -.584E-01 -.546E+00
   -.292E+02 -.386E+01 -.155E+02   0.305E+02 0.389E+01 0.154E+02   -.134E+01 -.267E-01 0.104E+00
   -.383E+02 0.759E+02 0.417E+03   0.399E+02 -.759E+02 -.418E+03   -.141E+01 0.372E-02 0.281E+00
   0.383E+02 -.759E+02 -.417E+03   -.399E+02 0.759E+02 0.418E+03   0.141E+01 -.372E-02 -.281E+00
   0.184E+02 0.250E+02 0.132E+03   -.191E+02 -.253E+02 -.133E+03   0.652E+00 0.278E+00 0.138E+01
   -.571E+01 -.211E+02 -.113E+03   0.583E+01 0.208E+02 0.112E+03   -.108E+00 0.239E+00 0.131E+01
   -.184E+02 -.250E+02 -.132E+03   0.191E+02 0.253E+02 0.133E+03   -.652E+00 -.278E+00 -.138E+01
   0.571E+01 0.211E+02 0.113E+03   -.583E+01 -.208E+02 -.112E+03   0.108E+00 -.239E+00 -.131E+01
   -.186E-05 0.835E-06 0.179E-05   -.639E-13 -.533E-13 -.782E-13   -.814E-23 -.260E-21 -.724E-22
   -.211E-06 0.128E-05 0.164E-05   -.817E-13 -.320E-13 0.639E-13   0.103E-20 -.152E-21 -.303E-22
   0.936E+02 -.353E+02 -.208E+03   -.941E+02 0.354E+02 0.209E+03   0.527E+00 -.147E+00 -.893E+00
   -.106E+03 -.129E+02 -.503E+02   0.106E+03 0.129E+02 0.503E+02   -.287E+00 -.757E-02 0.122E-01
   -.936E+02 0.353E+02 0.208E+03   0.941E+02 -.354E+02 -.209E+03   -.527E+00 0.147E+00 0.893E+00
   0.106E+03 0.129E+02 0.503E+02   -.106E+03 -.129E+02 -.503E+02   0.287E+00 0.757E-02 -.122E-01
   0.546E+01 0.926E+01 0.491E+02   -.554E+01 -.933E+01 -.494E+02   0.721E-01 0.589E-01 0.305E+00
   -.489E+01 -.219E+02 -.118E+03   0.515E+01 0.227E+02 0.122E+03   -.229E+00 -.683E+00 -.365E+01
   -.546E+01 -.926E+01 -.491E+02   0.554E+01 0.933E+01 0.494E+02   -.721E-01 -.589E-01 -.305E+00
   0.489E+01 0.219E+02 0.118E+03   -.515E+01 -.227E+02 -.122E+03   0.229E+00 0.683E+00 0.365E+01
   0.248E-05 0.100E-04 -.587E-04   0.284E-13 0.142E-13 -.142E-13   0.278E-16 0.111E-15 -.444E-15

 POSITION                                       TOTAL-FORCE (eV/Angst)
      7.08476      0.01236     -1.24262        -0.009426      0.000119      0.002386
      3.91286      3.85079      8.85829         0.009426     -0.000119     -0.002386
      2.56230      3.13935      5.26100        -0.007500      0.003963      0.022816
      1.00630      0.72158      3.71574         0.007500     -0.003963     -0.022816
      1.47897      3.56840      7.78118        -0.003217      0.003007      0.016856
      4.97125      3.44602      6.47399        -0.011300     -0.000904     -0.002801
      2.08963      0.29253      1.19557         0.003217     -0.003007     -0.016856
      6.02636      0.41713      1.14167         0.011300      0.000904      0.002801
      6.80329      3.12666      4.40852         0.004408     -0.002695     -0.015390
      4.19432      0.73649      3.20714        -0.004408      0.002695      0.015390
      3.25694      1.48445      7.42476        -0.019595     -0.000145      0.002838
      7.03454      1.51066      6.86824        -0.009484     -0.000177      0.000797
      0.31166      2.37648      1.55199         0.019595      0.000145     -0.002838
      3.96307      2.35250      0.74742         0.009484      0.000177     -0.000797
      1.78862      2.00834     -0.71159        -0.000000     -0.000000      0.000000
      5.50313      2.00946     -1.39213        -0.000000     -0.000000      0.000000
      2.51790      2.69132      2.84662         0.008493      0.000606      0.001705
      6.08460      2.69069      2.18399         0.011348      0.001366      0.005288
      1.05070      1.16961      6.13013        -0.008493     -0.000606     -0.001705
      4.91302      1.17246      5.43168        -0.011348     -0.001366     -0.005288
      3.21610      3.50201      7.10112        -0.000900      0.002241      0.012282
      6.94269      3.50518      6.42947        -0.004137      0.000284      0.002299
      0.35250      0.35892      1.87563         0.000900     -0.002241     -0.012282
      4.05492      0.35798      1.18619         0.004137     -0.000284     -0.002299
    total drift:                                0.000002      0.000010     -0.000059

  FREE ENERGIE OF THE ION-ELECTRON SYSTEM (eV)
  free  energy   TOTEN  =      -177.23737984 eV

  energy  without entropy=     -177.23737984  energy(sigma->0) =     -177.23737984

 d Force = 0.5836467E-03[ 0.450E-03, 0.718E-03]  d Energy = 0.7016333E-03-0.118E-03
 d Force = 0.1070546E+01[ 0.107E+01, 0.108E+01]  d Ewald  = 0.4942186E+01-0.387E+01

 Conjugate gradient step on ions:
 trial-energy change:   -0.000702  1 .order   -0.000656   -0.000917   -0.000395
  (g-gl).g = 0.496E-03      g.g   = 0.631E-03  gl.gl    = 0.226E-02
 g(Force)  = 0.468E-03   g(Stress)= 0.163E-03 ortho     = 0.118E-03
 gamma     =   0.22009
 trial     =   1.39476
 opt step  =   2.45257  (harmonic =   2.45257) maximal distance =0.00609936
 next E    =  -177.237484   (d E  =  -0.00081)

 reached required accuracy - stopping structural energy minimisation
 writing wavefunctions

 total charge

[...]

 magnetization (x)

# of ion       s       p       d       tot
    1       -0.000  -0.000   0.000  -0.000
    2       -0.000  -0.000   0.000  -0.000
    3        0.001   0.002   0.000   0.003
    4        0.001   0.002   0.000   0.003
    5       -0.001  -0.001   0.000  -0.002
    6       -0.000  -0.000   0.000  -0.000
    7       -0.001  -0.001   0.000  -0.002
    8       -0.000  -0.000   0.000  -0.000
    9        0.030   0.022   3.573   3.625
   10        0.030   0.022   3.573   3.625
   11        0.032   0.025   3.571   3.628
   12        0.030   0.024   3.585   3.638
   13        0.032   0.025   3.571   3.628
   14        0.030   0.024   3.585   3.638
   15        0.018   0.084   0.000   0.102
   16        0.017   0.079   0.000   0.096
   17        0.019   0.107   0.000   0.125
   18        0.020   0.107   0.000   0.127
   19        0.019   0.107   0.000   0.125
   20        0.020   0.107   0.000   0.127
   21        0.009   0.061   0.000   0.070
   22        0.015   0.150   0.000   0.165
   23        0.009   0.061   0.000   0.070
   24        0.015   0.150   0.000   0.165
tot          0.343   1.156  21.458  22.957