 vasp.5.4.4.18Apr17-6-g9f103f2a35 (build Oct 25 2017 14:42:18) complex

 executed on             LinuxIFC date 2021.06.02  18:13:25

 INCAR:
 POTCAR:    PAW_PBE Li_sv 10Sep2004
 POTCAR:    PAW_PBE O 08Apr2002
 POTCAR:    PAW_PBE S 06Sep2000
 POTCAR:    PAW_PBE Fe_pv 02Aug2007

 POTCAR:    PAW_PBE Li_sv 10Sep2004

 POTCAR:    PAW_PBE O 08Apr2002

 POTCAR:    PAW_PBE S 06Sep2000

 POTCAR:    PAW_PBE Fe_pv 02Aug2007

  PAW_PBE Li_sv 10Sep2004               :
  PAW_PBE O 08Apr2002                   :
  PAW_PBE S 06Sep2000                   :
  PAW_PBE Fe_pv 02Aug2007               :

 POSCAR: # Compound: Li16O16S24Fe32. Old comment:
  positions in direct lattice
 exchange correlation table for  LEXCH =        8
   RHO(1)=    0.500       N(1)  =     2000
   RHO(2)=  100.500       N(2)  =     4000

 ion  position               nearest neighbor table
   1  0.289  0.469  0.156-  27 2.00  29 2.00  55 2.53  49 2.53
   2  0.789  0.469  0.156-  28 2.00  30 2.00  56 2.53  50 2.53
   3  0.289  0.969  0.156-  25 2.00  31 2.00  53 2.53  51 2.53
   4  0.789  0.969  0.156-  26 2.00  32 2.00  54 2.53  52 2.53
   5  0.046  0.219  0.186-  30 1.98  25 1.98
   6  0.546  0.219  0.186-  29 1.98  26 1.98
   7  0.046  0.719  0.186-  32 1.98  27 1.98
   8  0.546  0.719  0.186-  31 1.98  28 1.98
   9  0.454  0.469  0.814-  20 1.98  21 1.98
  10  0.954  0.469  0.814-  19 1.98  22 1.98
  11  0.454  0.969  0.814-  18 1.98  23 1.98
  12  0.954  0.969  0.814-  17 1.98  24 1.98
  13  0.211  0.219  0.844-  21 2.00  17 2.00  49 2.53  53 2.53
  14  0.711  0.219  0.844-  22 2.00  18 2.00  50 2.53  54 2.53
  15  0.211  0.719  0.844-  23 2.00  19 2.00  51 2.53  55 2.53
  16  0.711  0.719  0.844-  24 2.00  20 2.00  52 2.53  56 2.53
  17  0.077  0.095  0.803-  12 1.98  13 2.00  57 2.00  83 2.01  86 2.01
  18  0.577  0.095  0.803-  11 1.98  14 2.00  58 2.01  84 2.01  85 2.01
  19  0.077  0.595  0.803-  10 1.98  15 2.00  59 2.01  81 2.01  88 2.01
  20  0.577  0.595  0.803-   9 1.98  16 2.00  60 2.01  82 2.01  87 2.01
  21  0.325  0.343  0.803-   9 1.98  13 2.00  61 2.01  81 2.01  85 2.01
  22  0.825  0.343  0.803-  10 1.98  14 2.00  62 2.01  82 2.01  86 2.01
  23  0.325  0.843  0.803-  11 1.98  15 2.00  63 2.01  83 2.01  87 2.01
  24  0.825  0.843  0.803-  12 1.98  16 2.00  64 2.01  84 2.01  88 2.01
  25  0.175  0.093  0.197-   5 1.98   3 2.00  65 2.01  77 2.01  75 2.01
  26  0.675  0.093  0.197-   6 1.98   4 2.00  66 2.01  78 2.01  76 2.01
  27  0.175  0.593  0.197-   7 1.98   1 2.00  67 2.01  79 2.01  73 2.01
  28  0.675  0.593  0.197-   8 1.98   2 2.00  68 2.01  80 2.01  74 2.01
  29  0.423  0.345  0.197-   6 1.98   1 2.00  69 2.01  77 2.01  74 2.01
  30  0.923  0.345  0.197-   5 1.98   2 2.00  70 2.01  78 2.01  73 2.01
  31  0.423  0.845  0.197-   8 1.98   3 2.00  71 2.01  79 2.01  76 2.01
  32  0.923  0.845  0.197-   7 1.98   4 2.00  72 2.01  80 2.01  75 2.01
  33  0.219  0.345  0.371-  61 2.41  67 2.65  69 2.65
  34  0.719  0.345  0.371-  62 2.41  68 2.65  70 2.65
  35  0.219  0.845  0.371-  63 2.41  65 2.65  71 2.65
  36  0.719  0.845  0.371-  64 2.41  66 2.65  72 2.65
  37  0.467  0.093  0.371-  58 2.41  71 2.65  65 2.65
  38  0.967  0.093  0.371-  57 2.42  72 2.65  66 2.65
  39  0.467  0.593  0.371-  60 2.41  69 2.65  67 2.65
  40  0.967  0.593  0.371-  59 2.41  70 2.65  68 2.65
  41  0.033  0.343  0.629-  70 2.41  57 2.65  61 2.65
  42  0.533  0.343  0.629-  69 2.41  58 2.65  62 2.65
  43  0.033  0.843  0.629-  72 2.41  59 2.65  63 2.65
  44  0.533  0.843  0.629-  71 2.41  60 2.65  64 2.65
  45  0.281  0.095  0.629-  65 2.41  61 2.65  57 2.65
  46  0.781  0.095  0.629-  66 2.41  62 2.65  58 2.65
  47  0.281  0.595  0.629-  67 2.41  63 2.65  59 2.65
  48  0.781  0.595  0.629-  68 2.41  64 2.65  60 2.65
  49  0.124  0.344  0.000-  73 2.51  86 2.51  81 2.52  77 2.52  13 2.53   1 2.53
  50  0.624  0.344  0.000-  74 2.51  85 2.51  82 2.52  78 2.52  14 2.53   2 2.53
  51  0.124  0.844  0.000-  75 2.51  88 2.51  83 2.52  79 2.52  15 2.53   3 2.53
  52  0.624  0.844  0.000-  76 2.51  87 2.51  84 2.52  80 2.52  16 2.53   4 2.53
  53  0.376  0.094  1.000-  85 2.51  76 2.51  77 2.52  83 2.52   3 2.53  13 2.53
  54  0.876  0.094  1.000-  86 2.51  75 2.51  78 2.52  84 2.52   4 2.53  14 2.53
  55  0.376  0.594  1.000-  87 2.51  74 2.51  79 2.52  81 2.52   1 2.53  15 2.53
  56  0.876  0.594  1.000-  88 2.51  73 2.51  80 2.52  82 2.52   2 2.53  16 2.53
  57  0.038  0.106  0.607-  17 2.00  38 2.42  41 2.65  45 2.65
  58  0.538  0.106  0.606-  18 2.01  37 2.41  42 2.65  46 2.65
  59  0.038  0.606  0.606-  19 2.01  40 2.41  43 2.65  47 2.65
  60  0.538  0.606  0.606-  20 2.01  39 2.41  44 2.65  48 2.65
[...]
  74  0.538  0.469  0.154-  29 2.01  28 2.01  50 2.51  55 2.51
  75  0.038  0.969  0.154-  32 2.01  25 2.01  51 2.51  54 2.51
  76  0.538  0.969  0.154-  31 2.01  26 2.01  52 2.51  53 2.51
  77  0.289  0.219  0.154-  25 2.01  29 2.01  53 2.52  49 2.52
  78  0.789  0.219  0.154-  26 2.01  30 2.01  54 2.52  50 2.52
  79  0.289  0.719  0.154-  27 2.01  31 2.01  55 2.52  51 2.52
  80  0.789  0.719  0.154-  28 2.01  32 2.01  56 2.52  52 2.52
  81  0.211  0.469  0.846-  21 2.01  19 2.01  49 2.52  55 2.52
  82  0.711  0.469  0.846-  22 2.01  20 2.01  50 2.52  56 2.52
  83  0.211  0.969  0.846-  23 2.01  17 2.01  51 2.52  53 2.52
  84  0.711  0.969  0.846-  24 2.01  18 2.01  52 2.52  54 2.52
  85  0.462  0.219  0.846-  18 2.01  21 2.01  53 2.51  50 2.51
  86  0.962  0.219  0.846-  17 2.01  22 2.01  54 2.51  49 2.51
  87  0.462  0.719  0.846-  20 2.01  23 2.01  55 2.51  52 2.51
  88  0.962  0.719  0.846-  19 2.01  24 2.01  56 2.51  51 2.51

IMPORTANT INFORMATION: All symmetrisations will be switched off!
NOSYMM: (Re-)initialisation of all symmetry stuff for point group C_1.

 KPOINTS: # No comment

Automatic generation of k-mesh.
Space group operators:
 irot       det(A)        alpha          n_x          n_y          n_z        tau_x        tau_y        tau_z
    1     1.000000     0.000000     1.000000     0.000000     0.000000     0.000000     0.000000     0.000000

 Subroutine IBZKPT returns following result:

 Found     14 irreducible k-points:

 Following reciprocal coordinates:
            Coordinates               Weight
  0.000000  0.000000  0.000000      1.000000
  0.333333  0.000000  0.000000      2.000000
  0.000000  0.333333  0.000000      2.000000
  0.333333  0.333333  0.000000      2.000000
 -0.333333  0.333333 -0.000000      2.000000
  0.000000  0.000000  0.333333      2.000000
  0.333333  0.000000  0.333333      2.000000
 -0.333333  0.000000  0.333333      2.000000
  0.000000  0.333333  0.333333      2.000000
  0.333333  0.333333  0.333333      2.000000
 -0.333333  0.333333  0.333333      2.000000
  0.000000 -0.333333  0.333333      2.000000
  0.333333 -0.333333  0.333333      2.000000
 -0.333333 -0.333333  0.333333      2.000000

 Following cartesian coordinates:
            Coordinates               Weight
  0.000000  0.000000  0.000000      1.000000
  0.029997  0.000000  0.008162      2.000000
  0.000000  0.029983  0.000000      2.000000
  0.029997  0.029983  0.008162      2.000000
 -0.029997  0.029983 -0.008162      2.000000
  0.000001  0.000000  0.032684      2.000000
  0.029998  0.000000  0.040846      2.000000
 -0.029996  0.000000  0.024522      2.000000
  0.000001  0.029983  0.032684      2.000000
  0.029998  0.029983  0.040846      2.000000
 -0.029996  0.029983  0.024522      2.000000
  0.000001 -0.029983  0.032684      2.000000
  0.029998 -0.029983  0.040846      2.000000
 -0.029996 -0.029983  0.024522      2.000000

 SYSTEM =  unknown system
 POSCAR =  # Compound: Li16O16S24Fe32. Old comment:

 Startparameter for this run:
   NWRITE =      1    write-flag & timer
   PREC   = accura    normal or accurate (medium, high low for compatibility)
   ISTART =      0    job   : 0-new  1-cont  2-samecut
   ICHARG =      1    charge: 1-file 2-atom 10-const
   ISPIN  =      2    spin polarized calculation?
   LNONCOLLINEAR =      F non collinear calculations
   LSORBIT =      F    spin-orbit coupling
   INIWAV =      1    electr: 0-lowe 1-rand  2-diag
   LASPH  =      T    aspherical Exc in radial PAW
   METAGGA=      F    non-selfconsistent MetaGGA calc.

 Electronic Relaxation 1
   ENCUT  =  650.0 eV  47.77 Ry    6.91 a.u.  23.10 23.11 21.97*2*pi/ulx,y,z
   ENINI  =  650.0     initial cutoff
   ENAUG  =  628.9 eV  augmentation charge cutoff
   NELM   =    200;   NELMIN=  8; NELMDL=  0     # of ELM steps
   EDIFF  = 0.1E-05   stopping-criterion for ELM
   LREAL  =      F    real-space projection
   NLSPLINE    = F    spline interpolate recip. space projectors
   LCOMPAT=      F    compatible to vasp.4.4
   GGA_COMPAT  = T    GGA compatible to vasp.4.4-vasp.4.6
   LMAXPAW     = -100 max onsite density
   LMAXMIX     =    4 max onsite mixed and CHGCAR
   VOSKOWN=      0    Vosko Wilk Nusair interpolation
   ROPT   =    0.00000   0.00000   0.00000   0.00000
 Ionic relaxation
   EDIFFG = 0.1E-04   stopping-criterion for IOM
   NSW    =      0    number of steps for IOM
   NBLOCK =      1;   KBLOCK =      1    inner block; outer block
   IBRION =     -1    ionic relax: 0-MD 1-quasi-New 2-CG
   NFREE  =      0    steps in history (QN), initial steepest desc. (CG)
   ISIF   =      2    stress and relaxation
   IWAVPR =     10    prediction:  0-non 1-charg 2-wave 3-comb
   ISYM   =      0    0-nonsym 1-usesym 2-fastsym
   LCORR  =      T    Harris-Foulkes like correction to forces

   POTIM  = 0.5000    time-step for ionic-motion
   TEIN   =    0.0    initial temperature
   TEBEG  =    0.0;   TEEND  =   0.0 temperature during run
   SMASS  =  -3.00    Nose mass-parameter (am)
   estimated Nose-frequenzy (Omega)   =  0.10E-29 period in steps =****** mass=  -0.282E-26a.u.
   SCALEE = 1.0000    scale energy and forces
   NPACO  =    256;   APACO  = 16.0  distance and # of slots for P.C.
   PSTRESS=    0.0 pullay stress

  Mass of Ions in am
   POMASS =   7.01 16.00 32.07 55.85
  Ionic Valenz
   ZVAL   =   3.00  6.00  6.00 14.00
  Atomic Wigner-Seitz radii
  virtual crystal weights
   VCA    =   1.00  1.00  1.00  1.00
   NELECT =     736.0000    total number of electrons
   NUPDOWN=      -1.0000    fix difference up-down

 DOS related values:
   EMIN   =  10.00;   EMAX   =-10.00  energy-range for DOS
   EFERMI =   0.00
   ISMEAR =     0;   SIGMA  =   0.05  broadening in eV -4-tet -1-fermi 0-gaus

 Electronic relaxation 2 (details)
   IALGO  =     38    algorithm
   LDIAG  =      T    sub-space diagonalisation (order eigenvalues)
   LSUBROT=      F    optimize rotation matrix (better conditioning)
   TURBO    =      0    0=normal 1=particle mesh
   IRESTART =      0    0=no restart 2=restart with 2 vectors
   NREBOOT  =      0    no. of reboots
   NMIN     =      0    reboot dimension
   EREF     =   0.00    reference energy to select bands
   IMIX   =      4    mixing-type and parameters
     AMIX     =   0.40;   BMIX     =  1.00
     AMIX_MAG =   1.60;   BMIX_MAG =  1.00
     AMIN     =   0.10
     WC   =   100.;   INIMIX=   1;  MIXPRE=   1;  MAXMIX= -45

 Intra band minimization:
   WEIMIN = 0.0000     energy-eigenvalue tresh-hold
   EBREAK =  0.46E-09  absolut break condition
   DEPER  =   0.30     relativ break condition

[...]
    -2.775108980  0.000000000 10.198722210     0.000002562  0.000000000  0.098052196

  length of vectors
    11.112233744 11.117451940 10.569539468     0.093263567  0.089948669  0.098052196

 FORCES acting on ions
    electron-ion (+dipol)            ewald-force                    non-local-force                 convergence-correction
   -.137E-02 0.118E-01 0.420E+02   0.175E-02 -.102E-01 -.420E+02   -.901E-04 -.152E-02 -.115E-01   -.158E-04 0.835E-05 -.274E-05
   -.120E-01 0.254E-01 0.420E+02   0.122E-01 -.249E-01 -.420E+02   -.346E-04 -.697E-03 -.111E-01   0.182E-04 -.113E-04 -.270E-05
   0.266E-02 0.166E-01 0.420E+02   -.349E-02 -.151E-01 -.420E+02   0.746E-03 -.154E-02 -.116E-01   -.137E-04 0.138E-04 0.199E-04
   -.286E-01 -.837E-02 0.420E+02   0.299E-01 0.111E-01 -.420E+02   -.331E-03 -.175E-02 -.132E-01   0.240E-04 -.472E-04 -.115E-04
   0.418E-01 0.310E-01 0.258E+02   -.450E-01 -.331E-01 -.255E+02   0.176E-02 0.916E-03 -.253E+00   0.547E-04 -.366E-05 -.601E-04
   -.200E-01 0.492E-02 0.259E+02   0.212E-01 -.474E-02 -.256E+02   -.763E-03 -.223E-03 -.251E+00   -.164E-04 0.243E-04 -.385E-04
   0.104E-01 -.113E-01 0.259E+02   -.118E-01 0.125E-01 -.256E+02   0.941E-03 -.982E-03 -.251E+00   0.634E-05 -.388E-05 -.329E-04
   -.700E-02 -.721E-03 0.259E+02   0.715E-02 0.131E-02 -.257E+02   -.742E-04 -.559E-03 -.251E+00   -.603E-05 0.146E-04 -.354E-04
   -.742E-02 -.507E-02 -.259E+02   0.784E-02 0.561E-02 0.257E+02   -.281E-03 -.569E-03 0.250E+00   -.622E-05 0.868E-05 0.290E-04
   0.159E-01 -.520E-01 -.259E+02   -.151E-01 0.534E-01 0.257E+02   -.503E-03 -.945E-03 0.251E+00   -.842E-05 0.868E-05 0.300E-04
   -.265E-01 0.138E-01 -.259E+02   0.271E-01 -.122E-01 0.257E+02   -.230E-03 -.118E-02 0.251E+00   -.130E-04 0.559E-06 0.256E-04
   0.203E+00 0.253E+00 -.261E+02   -.215E+00 -.265E+00 0.259E+02   0.782E-02 0.747E-02 0.249E+00   -.195E-04 -.965E-05 0.166E-04
   -.216E+00 -.158E+00 -.422E+02   0.229E+00 0.171E+00 0.422E+02   -.824E-02 -.866E-02 0.818E-02   0.151E-04 0.204E-04 0.200E-04
   0.624E-01 -.581E-02 -.421E+02   -.631E-01 0.645E-02 0.421E+02   0.179E-03 -.742E-03 0.105E-01   0.452E-06 0.100E-04 -.226E-04
   -.149E-01 0.450E-01 -.421E+02   0.150E-01 -.445E-01 0.420E+02   -.173E-03 -.804E-03 0.109E-01   -.869E-05 -.908E-05 -.652E-05
   0.198E-01 0.233E-01 -.421E+02   -.198E-01 -.223E-01 0.421E+02   -.165E-03 -.102E-02 0.107E-01   -.856E-05 -.140E-04 -.959E-05
   0.158E+02 0.152E+02 -.129E+03   -.162E+02 -.156E+02 0.134E+03   0.381E+00 0.393E+00 -.478E+01   -.778E-04 -.201E-04 -.105E-04
   0.159E+02 0.149E+02 -.126E+03   -.163E+02 -.153E+02 0.131E+03   0.390E+00 0.380E+00 -.463E+01   -.337E-04 0.469E-04 0.721E-04
   0.159E+02 0.149E+02 -.126E+03   -.163E+02 -.153E+02 0.131E+03   0.387E+00 0.380E+00 -.463E+01   -.802E-04 0.434E-04 0.701E-04
   0.159E+02 0.149E+02 -.126E+03   -.163E+02 -.153E+02 0.131E+03   0.386E+00 0.380E+00 -.463E+01   -.517E-04 0.616E-04 0.295E-04
   -.160E+02 -.150E+02 -.126E+03   0.164E+02 0.153E+02 0.131E+03   -.392E+00 -.380E+00 -.463E+01   0.208E-04 -.255E-04 0.775E-04
   -.158E+02 -.150E+02 -.126E+03   0.162E+02 0.154E+02 0.131E+03   -.385E+00 -.384E+00 -.463E+01   0.550E-05 -.305E-04 -.557E-04
   -.160E+02 -.148E+02 -.126E+03   0.164E+02 0.152E+02 0.131E+03   -.393E+00 -.376E+00 -.463E+01   0.202E-04 -.478E-04 -.262E-04
   -.158E+02 -.148E+02 -.126E+03   0.162E+02 0.151E+02 0.131E+03   -.387E+00 -.377E+00 -.463E+01   0.185E-05 -.618E-04 0.655E-04
   0.160E+02 -.149E+02 0.126E+03   -.164E+02 0.153E+02 -.130E+03   0.397E+00 -.379E+00 0.462E+01   0.856E-04 -.642E-04 -.152E-03
   0.158E+02 -.149E+02 0.126E+03   -.162E+02 0.153E+02 -.131E+03   0.380E+00 -.379E+00 0.462E+01   -.129E-03 -.348E-05 -.120E-03
   0.159E+02 -.149E+02 0.126E+03   -.163E+02 0.153E+02 -.131E+03   0.389E+00 -.379E+00 0.462E+01   -.731E-05 -.514E-04 -.839E-04
   0.159E+02 -.149E+02 0.126E+03   -.163E+02 0.153E+02 -.131E+03   0.389E+00 -.380E+00 0.463E+01   -.147E-04 -.149E-04 -.710E-04
   -.159E+02 0.149E+02 0.126E+03   0.163E+02 -.153E+02 -.131E+03   -.387E+00 0.379E+00 0.463E+01   0.288E-04 0.615E-04 -.726E-04
   -.159E+02 0.150E+02 0.126E+03   0.163E+02 -.154E+02 -.130E+03   -.385E+00 0.388E+00 0.462E+01   0.301E-04 0.154E-03 -.780E-04
   -.159E+02 0.149E+02 0.126E+03   0.163E+02 -.153E+02 -.131E+03   -.387E+00 0.380E+00 0.463E+01   0.378E-04 0.357E-04 -.556E-04
   -.159E+02 0.148E+02 0.126E+03   0.163E+02 -.152E+02 -.130E+03   -.386E+00 0.372E+00 0.462E+01   0.815E-04 -.215E-04 -.894E-04
   0.281E+02 0.283E+02 0.333E+02   -.285E+02 -.287E+02 -.338E+02   0.352E+00 0.355E+00 0.518E+00   0.886E-05 0.296E-04 0.154E-04
   0.279E+02 0.283E+02 0.334E+02   -.283E+02 -.286E+02 -.339E+02   0.348E+00 0.355E+00 0.520E+00   -.456E-04 0.417E-04 0.291E-04
   0.281E+02 0.281E+02 0.333E+02   -.285E+02 -.284E+02 -.338E+02   0.353E+00 0.351E+00 0.519E+00   -.343E-05 0.308E-05 -.342E-04
   0.279E+02 0.281E+02 0.334E+02   -.283E+02 -.285E+02 -.339E+02   0.348E+00 0.351E+00 0.520E+00   -.187E-04 0.539E-06 0.361E-05
   -.279E+02 -.282E+02 0.333E+02   0.282E+02 0.286E+02 -.338E+02   -.348E+00 -.354E+00 0.520E+00   -.246E-04 -.347E-04 0.139E-05
   -.283E+02 -.284E+02 0.317E+02   0.286E+02 0.287E+02 -.322E+02   -.351E+00 -.353E+00 0.558E+00   0.372E-04 -.134E-04 0.543E-05
   -.279E+02 -.282E+02 0.333E+02   0.283E+02 0.286E+02 -.338E+02   -.349E+00 -.354E+00 0.519E+00   0.203E-05 -.364E-04 0.862E-05
   -.279E+02 -.282E+02 0.333E+02   0.283E+02 0.286E+02 -.338E+02   -.349E+00 -.354E+00 0.520E+00   0.450E-04 -.222E-04 -.250E-04
   0.278E+02 -.284E+02 -.328E+02   -.281E+02 0.288E+02 0.333E+02   0.347E+00 -.357E+00 -.507E+00   -.215E-04 -.198E-04 -.158E-04
   0.280E+02 -.282E+02 -.333E+02   -.283E+02 0.286E+02 0.338E+02   0.350E+00 -.354E+00 -.518E+00   0.625E-05 -.135E-04 0.113E-04
   0.278E+02 -.281E+02 -.329E+02   -.282E+02 0.285E+02 0.334E+02   0.347E+00 -.350E+00 -.509E+00   0.702E-06 -.313E-04 0.276E-04
   0.280E+02 -.282E+02 -.333E+02   -.283E+02 0.286E+02 0.338E+02   0.349E+00 -.354E+00 -.518E+00   -.275E-04 -.505E-04 0.442E-05
   -.278E+02 0.282E+02 -.327E+02   0.282E+02 -.285E+02 0.332E+02   -.350E+00 0.353E+00 -.508E+00   0.426E-04 0.239E-04 0.203E-04
   -.276E+02 0.282E+02 -.330E+02   0.280E+02 -.286E+02 0.335E+02   -.341E+00 0.354E+00 -.510E+00   0.465E-04 0.340E-04 0.243E-04
   -.280E+02 0.282E+02 -.333E+02   0.284E+02 -.285E+02 0.338E+02   -.351E+00 0.353E+00 -.518E+00   0.459E-04 0.443E-04 0.477E-05
   -.280E+02 0.282E+02 -.333E+02   0.283E+02 -.285E+02 0.338E+02   -.350E+00 0.353E+00 -.518E+00   0.254E-04 0.518E-05 0.318E-04
   0.991E+01 -.614E-01 -.190E+00   -.100E+02 0.630E-01 0.191E+00   0.114E+00 -.317E-02 -.316E-02   0.123E-04 -.361E-07 0.224E-04
   0.989E+01 0.417E-01 -.590E-01   -.100E+02 -.423E-01 0.595E-01   0.114E+00 0.662E-03 -.848E-03   -.510E-04 0.377E-04 -.233E-04
   0.990E+01 0.146E+00 -.164E+00   -.100E+02 -.148E+00 0.165E+00   0.116E+00 0.346E-02 -.325E-02   -.895E-04 0.211E-04 0.336E-04
   0.989E+01 0.521E-01 -.555E-01   -.100E+02 -.526E-01 0.559E-01   0.114E+00 0.455E-03 -.689E-03   -.488E-04 -.140E-05 -.149E-04
   -.100E+02 0.525E-01 -.118E+00   0.101E+02 -.524E-01 0.119E+00   -.119E+00 -.265E-03 -.234E-02   -.148E-04 0.381E-04 0.820E-05
   -.978E+01 0.510E-01 -.232E+00   0.989E+01 -.519E-01 0.236E+00   -.111E+00 0.107E-02 -.765E-02   0.134E-03 -.272E-04 -.338E-04
   -.992E+01 0.449E-01 -.175E-01   0.100E+02 -.454E-01 0.176E-01   -.115E+00 0.486E-03 -.274E-03   0.185E-04 -.132E-04 -.207E-04
   -.988E+01 0.454E-01 -.437E-01   0.100E+02 -.457E-01 0.438E-01   -.114E+00 0.177E-03 -.577E-03   0.576E-04 0.124E-04 -.184E-04
   0.181E+02 0.190E+02 0.193E+03   -.171E+02 -.179E+02 -.190E+03   -.105E+01 -.108E+01 -.264E+01   -.576E-03 0.200E-04 0.138E-02
   0.192E+02 0.189E+02 0.185E+03   -.181E+02 -.179E+02 -.183E+03   -.105E+01 -.108E+01 -.241E+01   0.906E-04 0.454E-04 -.698E-04
   0.190E+02 0.189E+02 0.185E+03   -.179E+02 -.179E+02 -.183E+03   -.106E+01 -.108E+01 -.241E+01   0.170E-04 0.567E-04 0.416E-04
   0.191E+02 0.189E+02 0.185E+03   -.180E+02 -.179E+02 -.183E+03   -.106E+01 -.108E+01 -.241E+01   -.507E-05 0.280E-04 0.437E-04
[...]
   0.179E+00 -.158E+00 0.208E+03   -.189E+00 0.163E+00 -.210E+03   0.792E-02 -.320E-02 0.205E+01   0.225E-03 -.540E-04 -.534E-03
   -.726E-01 -.806E-01 0.209E+03   0.777E-01 0.789E-01 -.211E+03   -.386E-02 0.205E-02 0.206E+01   -.177E-03 -.161E-03 -.347E-03
   0.632E-01 -.698E-01 0.199E+03   -.655E-01 0.652E-01 -.201E+03   0.199E-02 0.414E-02 0.206E+01   -.128E-03 -.112E-03 -.427E-03
   -.927E-01 0.355E-01 0.199E+03   0.991E-01 -.444E-01 -.201E+03   -.470E-02 0.677E-02 0.205E+01   -.138E-04 0.229E-03 -.561E-03
   0.407E-01 -.469E-01 0.199E+03   -.383E-01 0.439E-01 -.201E+03   -.185E-02 0.289E-02 0.206E+01   -.126E-03 -.611E-04 -.350E-03
   -.112E-02 -.989E-01 0.199E+03   0.377E-02 0.100E+00 -.201E+03   -.212E-02 -.730E-03 0.206E+01   0.669E-04 0.333E-04 -.345E-03
   -.137E+00 -.246E+00 -.199E+03   0.138E+00 0.245E+00 0.201E+03   -.565E-03 0.659E-03 -.206E+01   -.694E-05 0.212E-04 0.393E-03
   0.495E-01 -.109E+00 -.199E+03   -.525E-01 0.109E+00 0.201E+03   0.233E-02 -.116E-03 -.206E+01   0.859E-04 -.647E-04 0.260E-03
   -.873E+00 0.737E+00 -.200E+03   0.920E+00 -.785E+00 0.202E+03   -.358E-01 0.370E-01 -.207E+01   -.245E-03 0.226E-03 0.229E-03
   0.222E+00 0.431E-01 -.199E+03   -.224E+00 -.441E-01 0.201E+03   0.126E-02 0.107E-02 -.206E+01   -.795E-05 -.350E-04 0.302E-03
   -.163E+00 -.122E+00 -.209E+03   0.164E+00 0.118E+00 0.211E+03   -.148E-02 0.309E-02 -.206E+01   -.417E-04 0.640E-04 0.318E-03
   0.881E+00 -.963E+00 -.210E+03   -.930E+00 0.101E+01 0.212E+03   0.363E-01 -.313E-01 -.208E+01   0.275E-03 -.276E-03 0.131E-03
   -.496E-01 -.435E-01 -.209E+03   0.528E-01 0.398E-01 0.211E+03   -.266E-02 0.341E-02 -.206E+01   -.316E-04 0.188E-05 0.230E-03
   0.430E-01 0.113E+00 -.209E+03   -.423E-01 -.117E+00 0.211E+03   -.672E-03 0.374E-02 -.206E+01   0.485E-04 -.899E-04 0.316E-03
   -.172E-01 -.377E-01 0.378E+00   -.254E-12 -.141E-12 0.398E-12   0.177E-01 0.369E-01 -.379E+00   -.568E-03 -.320E-03 0.606E-03

 POSITION                                       TOTAL-FORCE (eV/Angst)
      2.77841      5.21785      1.58925         0.000275      0.000159      0.000390
      8.33453      5.21785      1.58910         0.000165     -0.000209      0.000077
      2.77841     10.77658      1.58925        -0.000105      0.000062      0.000603
      8.33453     10.77658      1.58910         0.001019      0.000941      0.001958
      0.00058      2.43861      1.89560        -0.001416     -0.001164      0.002106
      5.55670      2.43861      1.89545         0.000427     -0.000001      0.000345
      0.00058      7.99734      1.89560        -0.000440      0.000233      0.000389
      5.55670      7.99734      1.89545         0.000066      0.000056      0.000214
      2.78043      5.21797      8.30298         0.000131     -0.000014      0.000044
      8.33655      5.21797      8.30283         0.000232      0.000444     -0.000311
      2.78043     10.77670      8.30298         0.000259      0.000460     -0.000584
      8.33655     10.77670      8.30283        -0.004997     -0.005255      0.003180
      0.00259      2.43849      8.60933         0.004730      0.004273      0.002780
      5.55871      2.43849      8.60919        -0.000538     -0.000078      0.000288
      0.00259      7.99722      8.60933        -0.000136     -0.000304     -0.000124
      5.55871      7.99722      8.60919        -0.000123     -0.000007      0.000076
     -1.37640      1.05960      8.18451        -0.004906     -0.003501      0.061271
      4.17971      1.05960      8.18437         0.001265     -0.000107      0.000256
     -1.37640      6.61833      8.18451         0.000192      0.000046      0.000329
      4.17971      6.61833      8.18437         0.000141     -0.000027     -0.000062
      1.38116      3.81753      8.18442        -0.000842     -0.000067      0.000406
      6.93728      3.81753      8.18427         0.001795     -0.001940      0.000207
      1.38116      9.37626      8.18442        -0.001786      0.001381      0.000682
      6.93728      9.37626      8.18427         0.000371      0.000638     -0.000110
      1.39985      1.03817      2.01416         0.002762      0.000553     -0.002201
      6.95597      1.03817      2.01401        -0.003106     -0.000402     -0.001845
      1.39985      6.59689      2.01416         0.000195      0.000044     -0.000689
      6.95597      6.59689      2.01401         0.000067     -0.000056     -0.000112
      4.15741      3.83897      2.01406        -0.000409     -0.000239     -0.000465
      9.71353      3.83897      2.01392         0.000518      0.002592     -0.001462
      4.15741      9.39769      2.01406        -0.000363      0.000027     -0.000450
      9.71353      9.39769      2.01392        -0.000322     -0.002851     -0.001759
      1.40044      3.83812      3.78391         0.000522      0.000660      0.000126
      6.95656      3.83812      3.78377        -0.000709      0.000518      0.000783
      1.40044      9.39685      3.78391         0.000766     -0.001001      0.000201
      6.95656      9.39685      3.78377        -0.000971     -0.000859      0.000689
      4.15774      1.03891      3.78384         0.000490      0.000185      0.000680
      9.71386      1.03891      3.78369         0.001001      0.001830      0.037286
      4.15774      6.59764      3.78384         0.000034      0.000127      0.000202
      9.71386      6.59764      3.78369         0.000158     -0.000013      0.000987
     -1.37674      3.81828      6.41474        -0.000354      0.001053      0.004726
      4.17938      3.81828      6.41460         0.000321      0.000019      0.000058
     -1.37674      9.37700      6.41474        -0.000593      0.000636      0.003774
      4.17938      9.37700      6.41460         0.000058      0.000230      0.000117
      1.38057      1.05876      6.41466        -0.000470      0.000336      0.004516
      6.93668      1.05876      6.41452         0.002071     -0.000216      0.003768
      1.38057      6.61748      6.41466        -0.000150     -0.000083      0.000234
      6.93668      6.61748      6.41452         0.000118     -0.000230      0.000261
      1.38227      3.82822      0.00001        -0.000040     -0.001576     -0.001698
      6.93839      3.82822     -0.00014        -0.000159      0.000090     -0.000376
      1.38227      9.38694      0.00001         0.000338      0.001316     -0.001726
      6.93839      9.38694     -0.00014        -0.000190     -0.000041     -0.000292
      1.39874      1.04885     10.19857        -0.001793     -0.000120     -0.001611
      6.95485      1.04885     10.19843         0.001641      0.000176     -0.003527
      1.39874      6.60758     10.19857        -0.000205      0.000012     -0.000208
      6.95485      6.60758     10.19843         0.000196     -0.000103     -0.000443
     -1.26026      1.18232      6.19336         0.006103      0.000290     -0.130582
      4.29848      1.18232      6.18356        -0.002502      0.000126      0.000731
     -1.25763      6.74104      6.18371        -0.000311      0.000114      0.000563
      4.29848      6.74104      6.18356        -0.000213      0.000046     -0.000134
[...]
      5.55647      5.21813      1.57017         0.000213      0.000029      0.000302
      0.00035     10.77686      1.57032        -0.002327      0.001616      0.003809
      5.55647     10.77686      1.57017         0.000993      0.000195      0.000841
      2.77849      2.43869      1.57537        -0.000421     -0.000495      0.001123
      8.33461      2.43869      1.57522         0.001759     -0.001870      0.003412
      2.77849      7.99742      1.57537         0.000413     -0.000133      0.000682
      8.33461      7.99742      1.57522         0.000592      0.000660      0.000275
      0.00252      5.21805      8.62321        -0.000100      0.000315     -0.000509
      5.55864      5.21805      8.62307        -0.000614      0.000437      0.000302
      0.00252     10.77678      8.62321         0.011655     -0.011627      0.005382
      5.55864     10.77678      8.62307        -0.000582      0.000114      0.000236
      2.78066      2.43877      8.62826         0.000249     -0.000483     -0.001077
      8.33677      2.43877      8.62811        -0.012504      0.011774      0.008158
      2.78066      7.99750      8.62826         0.000491     -0.000294      0.000086
      8.33677      7.99750      8.62811         0.000124     -0.000416     -0.000493
    total drift:                               -0.000064     -0.001117     -0.000137

  FREE ENERGIE OF THE ION-ELECTRON SYSTEM (eV)
  free  energy   TOTEN  =      -489.21480462 eV

  energy  without entropy=     -489.21480462  energy(sigma->0) =     -489.21480462