 vasp.5.4.4.18Apr17-6-g9f103f2a35 (build Oct 25 2017 14:42:18) complex

 executed on             LinuxIFC date 2021.06.12  18:19:29

 INCAR:
 POTCAR:    PAW_PBE Li_sv 10Sep2004
 POTCAR:    PAW_PBE Fe_pv 02Aug2007
 POTCAR:    PAW_PBE S 06Sep2000
 POTCAR:    PAW_PBE O 08Apr2002

 POTCAR:    PAW_PBE Li_sv 10Sep2004

 POTCAR:    PAW_PBE Fe_pv 02Aug2007

 POTCAR:    PAW_PBE S 06Sep2000

 POTCAR:    PAW_PBE O 08Apr2002

  PAW_PBE Li_sv 10Sep2004               :
  PAW_PBE Fe_pv 02Aug2007               :
  PAW_PBE S 06Sep2000                   :
  PAW_PBE O 08Apr2002                   :

 POSCAR: # Compound: Li128Fe64S64O64. Old comment
  positions in direct lattice
 exchange correlation table for  LEXCH =        8
   RHO(1)=    0.500       N(1)  =     2000
   RHO(2)=  100.500       N(2)  =     4000

 ion  position               nearest neighbor table
   1  0.125  0.125  0.375- 273 1.93 289 1.93
   2  0.375  0.125  0.375- 274 1.93 290 1.93
   3  0.625  0.125  0.375- 275 1.93 291 1.93
   4  0.875  0.125  0.375- 276 1.93 292 1.93
   5  0.125  0.375  0.375- 277 1.93 293 1.93
   6  0.375  0.375  0.375- 278 1.93 294 1.93
   7  0.625  0.375  0.375- 279 1.93 295 1.93
   8  0.875  0.375  0.375- 280 1.93 296 1.93
   9  0.125  0.625  0.375- 281 1.93 297 1.93
  10  0.375  0.625  0.375- 282 1.93 298 1.93
  11  0.625  0.625  0.375- 283 1.93 299 1.93
  12  0.875  0.625  0.375- 284 1.93 300 1.93
  13  0.125  0.875  0.375- 285 1.93 301 1.93
  14  0.375  0.875  0.375- 286 1.93 302 1.93
  15  0.625  0.875  0.375- 287 1.93 303 1.93
  16  0.875  0.875  0.375- 288 1.93 304 1.93
  17  0.125  0.125  0.875- 257 1.93 305 1.93
  18  0.375  0.125  0.875- 258 1.93 306 1.93
  19  0.625  0.125  0.875- 259 1.93 307 1.93
  20  0.875  0.125  0.875- 260 1.93 308 1.93
  21  0.125  0.375  0.875- 261 1.93 309 1.93
  22  0.375  0.375  0.875- 262 1.93 310 1.93
  23  0.625  0.375  0.875- 263 1.93 311 1.93
  24  0.875  0.375  0.875- 264 1.93 312 1.93
  25  0.125  0.625  0.875- 265 1.93 313 1.93
  26  0.375  0.625  0.875- 266 1.93 314 1.93
  27  0.625  0.625  0.875- 267 1.93 315 1.93
  28  0.875  0.625  0.875- 268 1.93 316 1.93
  29  0.125  0.875  0.875- 269 1.93 317 1.93
  30  0.375  0.875  0.875- 270 1.93 318 1.93
  31  0.625  0.875  0.875- 271 1.93 319 1.93
  32  0.875  0.875  0.875- 272 1.93 320 1.93
  33  0.125  0.125  0.125- 257 1.93 289 1.93
  34  0.375  0.125  0.125- 258 1.93 290 1.93
  35  0.625  0.125  0.125- 259 1.93 291 1.93
  36  0.875  0.125  0.125- 260 1.93 292 1.93
  37  0.125  0.375  0.125- 261 1.93 293 1.93
  38  0.375  0.375  0.125- 262 1.93 294 1.93
  39  0.625  0.375  0.125- 263 1.93 295 1.93
  40  0.875  0.375  0.125- 264 1.93 296 1.93
  41  0.125  0.625  0.125- 265 1.93 297 1.93
  42  0.375  0.625  0.125- 266 1.93 298 1.93
  43  0.625  0.625  0.125- 267 1.93 299 1.93
  44  0.875  0.625  0.125- 268 1.93 300 1.93
  45  0.125  0.875  0.125- 269 1.93 301 1.93
  46  0.375  0.875  0.125- 270 1.93 302 1.93
  47  0.625  0.875  0.125- 271 1.93 303 1.93
  48  0.875  0.875  0.125- 272 1.93 304 1.93
  49  0.125  0.125  0.625- 273 1.93 305 1.93
  50  0.375  0.125  0.625- 274 1.93 306 1.93
  51  0.625  0.125  0.625- 275 1.93 307 1.93
  52  0.875  0.125  0.625- 276 1.93 308 1.93
  53  0.125  0.375  0.625- 277 1.93 309 1.93
  54  0.375  0.375  0.625- 278 1.93 310 1.93
  55  0.625  0.375  0.625- 279 1.93 311 1.93
  56  0.875  0.375  0.625- 280 1.93 312 1.93
  57  0.125  0.625  0.625- 281 1.93 313 1.93
  58  0.375  0.625  0.625- 282 1.93 314 1.93
  59  0.625  0.625  0.625- 283 1.93 315 1.93
  60  0.875  0.625  0.625- 284 1.93 316 1.93
[...]
 306  0.375  0.125  0.750-  18 1.93  50 1.93  82 1.99  86 1.99 178 1.99 179 1.99
 307  0.625  0.125  0.750-  19 1.93  51 1.93  83 1.99  87 1.99 179 1.99 180 1.99
 308  0.875  0.125  0.750-  20 1.93  52 1.93  84 1.99  88 1.99 177 1.99 180 1.99
 309  0.125  0.375  0.750-  21 1.93  53 1.93  85 1.99  89 1.99 181 1.99 182 1.99
 310  0.375  0.375  0.750-  22 1.93  54 1.93  86 1.99  90 1.99 182 1.99 183 1.99
 311  0.625  0.375  0.750-  23 1.93  55 1.93  87 1.99  91 1.99 183 1.99 184 1.99
 312  0.875  0.375  0.750-  24 1.93  56 1.93  88 1.99  92 1.99 181 1.99 184 1.99
 313  0.125  0.625  0.750-  25 1.93  57 1.93  89 1.99  93 1.99 185 1.99 186 1.99
 314  0.375  0.625  0.750-  26 1.93  58 1.93  90 1.99  94 1.99 186 1.99 187 1.99
 315  0.625  0.625  0.750-  27 1.93  59 1.93  91 1.99  95 1.99 187 1.99 188 1.99
 316  0.875  0.625  0.750-  28 1.93  60 1.93  92 1.99  96 1.99 185 1.99 188 1.99
 317  0.125  0.875  0.750-  29 1.93  61 1.93  81 1.99  93 1.99 189 1.99 190 1.99
 318  0.375  0.875  0.750-  30 1.93  62 1.93  82 1.99  94 1.99 190 1.99 191 1.99
 319  0.625  0.875  0.750-  31 1.93  63 1.93  83 1.99  95 1.99 191 1.99 192 1.99
 320  0.875  0.875  0.750-  32 1.93  64 1.93  84 1.99  96 1.99 189 1.99 192 1.99

  LATTYP: Found a simple tetragonal cell.
 ALAT       =    15.8906492000
 C/A-ratio  =     0.9700393021

  Lattice vectors:

 A1 = (  15.8906492000,   0.0000000000,   0.0000000000)
 A2 = (   0.0000000000,  15.8906492000,   0.0000000000)
 A3 = (   0.0000000000,   0.0000000000,  15.4145542600)

Analysis of symmetry for initial positions (statically):
 Subroutine PRICEL returns:
 Original cell was already a primitive cell.

 Routine SETGRP: Setting up the symmetry group for a
 simple tetragonal supercell.

 Subroutine GETGRP returns: Found  1 space group operations
 (whereof  1 operations were pure point group operations)
 out of a pool of 16 trial point group operations.

The static configuration has the point symmetry C_1 .

Analysis of symmetry for dynamics (positions and initial velocities):
 Subroutine PRICEL returns:
 Original cell was already a primitive cell.

[...]

The dynamic configuration has the point symmetry C_1 .

Analysis of structural, dynamic, and magnetic symmetry:
 Subroutine PRICEL returns:
 Original cell was already a primitive cell.

 Routine SETGRP: Setting up the symmetry group for a
 simple tetragonal supercell.

 Subroutine GETGRP returns: Found  1 space group operations
 (whereof  1 operations were pure point group operations)
 out of a pool of 16 trial point group operations.

The magnetic configuration has the point symmetry C_1 .

 Subroutine INISYM returns: Found  1 space group operations
 (whereof  1 operations are pure point group operations),
 and found     1 'primitive' translations

 KPOINTS: # No comment

Automatic generation of k-mesh.
Space group operators:
 irot       det(A)        alpha          n_x          n_y          n_z        tau_x        tau_y        tau_z
    1     1.000000     0.000000     1.000000     0.000000     0.000000     0.000000     0.000000     0.000000

 Subroutine IBZKPT returns following result:

 Found      8 irreducible k-points:

 Following reciprocal coordinates:
            Coordinates               Weight
  0.000000  0.000000  0.000000      1.000000
  0.500000  0.000000  0.000000      1.000000
  0.000000  0.500000  0.000000      1.000000
  0.500000  0.500000  0.000000      1.000000
  0.000000  0.000000  0.500000      1.000000
  0.500000  0.000000  0.500000      1.000000
  0.000000  0.500000  0.500000      1.000000
  0.500000  0.500000  0.500000      1.000000

 Following cartesian coordinates:
            Coordinates               Weight
  0.000000  0.000000  0.000000      1.000000
  0.031465  0.000000  0.000000      1.000000
  0.000000  0.031465  0.000000      1.000000
  0.031465  0.031465  0.000000      1.000000
  0.000000  0.000000  0.032437      1.000000
  0.031465  0.000000  0.032437      1.000000
  0.000000  0.031465  0.032437      1.000000
  0.031465  0.031465  0.032437      1.000000

 SYSTEM =  unknown system
 POSCAR =  # Compound: Li128Fe64S64O64. Old comment

 Startparameter for this run:
   NWRITE =      1    write-flag & timer
   PREC   = accura    normal or accurate (medium, high low for compatibility)
   ISTART =      0    job   : 0-new  1-cont  2-samecut
   ICHARG =      1    charge: 1-file 2-atom 10-const
   ISPIN  =      2    spin polarized calculation?
   LNONCOLLINEAR =      F non collinear calculations
   LSORBIT =      F    spin-orbit coupling
   INIWAV =      1    electr: 0-lowe 1-rand  2-diag
   LASPH  =      T    aspherical Exc in radial PAW
   METAGGA=      F    non-selfconsistent MetaGGA calc.

 Electronic Relaxation 1
   ENCUT  =  650.0 eV  47.77 Ry    6.91 a.u.  33.03 33.03 32.04*2*pi/ulx,y,z
   ENINI  =  650.0     initial cutoff
   ENAUG  =  628.9 eV  augmentation charge cutoff
   NELM   =    200;   NELMIN=  8; NELMDL=  0     # of ELM steps
   EDIFF  = 0.1E-05   stopping-criterion for ELM
   LREAL  =      F    real-space projection
   NLSPLINE    = F    spline interpolate recip. space projectors
   LCOMPAT=      F    compatible to vasp.4.4
   GGA_COMPAT  = T    GGA compatible to vasp.4.4-vasp.4.6
   LMAXPAW     = -100 max onsite density
   LMAXMIX     =    4 max onsite mixed and CHGCAR
   VOSKOWN=      0    Vosko Wilk Nusair interpolation
   ROPT   =    0.00000   0.00000   0.00000   0.00000
 Ionic relaxation
   EDIFFG = 0.1E-04   stopping-criterion for IOM
   NSW    =      0    number of steps for IOM
   NBLOCK =      1;   KBLOCK =      1    inner block; outer block
   IBRION =     -1    ionic relax: 0-MD 1-quasi-New 2-CG
   NFREE  =      0    steps in history (QN), initial steepest desc. (CG)
   ISIF   =      2    stress and relaxation
   IWAVPR =     10    prediction:  0-non 1-charg 2-wave 3-comb
   ISYM   =      2    0-nonsym 1-usesym 2-fastsym
   LCORR  =      T    Harris-Foulkes like correction to forces

   POTIM  = 0.5000    time-step for ionic-motion
   TEIN   =    0.0    initial temperature
   TEBEG  =    0.0;   TEEND  =   0.0 temperature during run
   SMASS  =  -3.00    Nose mass-parameter (am)
   estimated Nose-frequenzy (Omega)   =  0.10E-29 period in steps =****** mass=  -0.577E-26a.u.
   SCALEE = 1.0000    scale energy and forces
   NPACO  =    256;   APACO  = 16.0  distance and # of slots for P.C.
   PSTRESS=    0.0 pullay stress

  Mass of Ions in am
   POMASS =   7.01 55.85 32.07 16.00
  Ionic Valenz
   ZVAL   =   3.00 14.00  6.00  6.00
  Atomic Wigner-Seitz radii
  virtual crystal weights
   VCA    =   1.00  1.00  1.00  1.00
   NELECT =    2048.0000    total number of electrons
   NUPDOWN=      -1.0000    fix difference up-down

 DOS related values:
   EMIN   =  10.00;   EMAX   =-10.00  energy-range for DOS
   EFERMI =   0.00
   ISMEAR =     0;   SIGMA  =   0.05  broadening in eV -4-tet -1-fermi 0-gaus

 Electronic relaxation 2 (details)
   IALGO  =     38    algorithm
   LDIAG  =      T    sub-space diagonalisation (order eigenvalues)
   LSUBROT=      F    optimize rotation matrix (better conditioning)
   TURBO    =      0    0=normal 1=particle mesh
   IRESTART =      0    0=no restart 2=restart with 2 vectors
   NREBOOT  =      0    no. of reboots
   NMIN     =      0    reboot dimension
   EREF     =   0.00    reference energy to select bands
   IMIX   =      4    mixing-type and parameters
     AMIX     =   0.40;   BMIX     =  1.00
     AMIX_MAG =   1.60;   BMIX_MAG =  1.00
     AMIN     =   0.10
     WC   =   100.;   INIMIX=   1;  MIXPRE=   1;  MAXMIX= -45

 Intra band minimization:
   WEIMIN = 0.0000     energy-eigenvalue tresh-hold
   EBREAK =  0.17E-09  absolut break condition
[...]
     0.000000000  0.000000000 15.414554260     0.000000000  0.000000000  0.064873754

  length of vectors
    15.890649200 15.890649200 15.414554260     0.062930091  0.062930091  0.064873754

 FORCES acting on ions
    electron-ion (+dipol)            ewald-force                    non-local-force                 convergence-correction
   0.335E-01 -.671E-01 -.634E-01   -.353E-01 0.723E-01 0.702E-01   0.789E-03 -.124E-02 -.292E-02   0.416E-05 -.120E-04 -.300E-04
   -.193E-01 -.580E-02 -.676E-02   0.206E-01 0.693E-02 0.679E-02   -.648E-03 -.592E-03 -.364E-04   0.217E-05 -.530E-05 0.137E-04
   -.441E-02 0.958E-03 0.705E-03   0.473E-02 -.853E-03 -.766E-03   -.169E-03 -.478E-04 0.455E-04   0.953E-06 -.131E-04 0.550E-05
   0.465E-02 0.595E-02 0.571E-02   -.469E-02 -.611E-02 -.583E-02   0.269E-04 0.896E-04 0.120E-03   -.230E-05 -.634E-05 -.646E-05
   0.261E-02 -.888E-02 -.553E-03   -.289E-02 0.929E-02 0.547E-03   0.158E-03 -.208E-03 0.467E-05   -.648E-05 -.280E-05 -.262E-05
   -.260E-02 -.527E-02 -.526E-03   0.288E-02 0.566E-02 0.478E-03   -.147E-03 -.208E-03 0.208E-04   -.414E-05 0.334E-06 0.442E-05
   -.175E-02 -.127E-02 0.366E-03   0.191E-02 0.139E-02 -.381E-03   -.824E-04 -.750E-04 0.184E-04   -.413E-05 0.143E-04 -.651E-05
   0.177E-02 -.195E-02 0.874E-03   -.193E-02 0.218E-02 -.919E-03   0.894E-04 -.126E-03 0.249E-04   0.148E-05 -.118E-05 0.298E-05
   0.260E-02 -.468E-02 0.379E-02   -.288E-02 0.490E-02 -.396E-02   0.149E-03 -.112E-03 0.120E-03   -.187E-05 0.101E-05 -.356E-05
   0.524E-03 -.410E-03 0.116E-02   -.584E-03 0.526E-03 -.125E-02   0.363E-04 -.692E-04 0.628E-04   0.655E-06 0.357E-05 -.152E-05
   -.175E-02 -.892E-03 0.778E-03   0.190E-02 0.943E-03 -.838E-03   -.840E-04 -.316E-04 0.444E-04   0.163E-05 0.884E-05 -.250E-05
   -.135E-02 -.371E-02 0.256E-02   0.152E-02 0.397E-02 -.263E-02   -.910E-04 -.135E-03 0.603E-04   -.334E-05 -.843E-05 0.436E-06
   0.332E-01 0.291E-01 0.322E-01   -.350E-01 -.312E-01 -.369E-01   0.783E-03 0.995E-03 0.329E-02   0.149E-04 0.302E-05 0.285E-05
   -.623E-02 0.105E-01 -.106E-02   0.748E-02 -.123E-01 0.398E-03   -.707E-03 0.990E-03 0.381E-03   -.164E-05 0.321E-05 0.535E-05
   -.440E-02 0.120E-02 0.126E-02   0.472E-02 -.147E-02 -.140E-02   -.168E-03 0.145E-03 0.102E-03   -.427E-06 0.613E-06 -.377E-06
   -.836E-02 -.130E-02 0.113E-01   0.831E-02 0.765E-03 -.122E-01   0.832E-04 0.306E-03 0.533E-03   0.921E-06 -.720E-06 -.109E-04
   0.291E-02 0.420E-02 -.436E-02   -.314E-02 -.439E-02 0.472E-02   0.104E-03 0.952E-04 -.238E-03   0.810E-05 -.540E-05 -.109E-04
   0.405E-03 0.126E-02 -.186E-03   -.423E-03 -.133E-02 0.286E-03   0.455E-05 0.422E-04 -.737E-04   0.829E-05 -.959E-05 0.176E-05
   -.185E-02 0.829E-03 -.754E-03   0.202E-02 -.934E-03 0.849E-03   -.877E-04 0.539E-04 -.747E-04   -.249E-05 0.254E-05 0.774E-05
   -.143E-02 0.272E-02 -.329E-02   0.150E-02 -.293E-02 0.391E-02   -.234E-04 0.929E-04 -.431E-03   -.692E-05 0.340E-05 0.113E-04
   0.119E-02 -.905E-03 -.659E-03   -.130E-02 0.917E-03 0.675E-03   0.545E-04 0.154E-05 -.577E-05   0.133E-05 -.518E-05 -.601E-05
   -.148E-03 -.118E-02 -.137E-03   0.145E-03 0.121E-02 0.944E-04   0.148E-04 -.159E-04 0.184E-04   -.136E-04 -.123E-05 0.109E-04
   -.101E-02 -.514E-03 -.397E-03   0.111E-02 0.518E-03 0.420E-03   -.538E-04 0.584E-05 -.158E-04   0.332E-05 -.930E-05 -.343E-05
   -.291E-04 -.234E-03 -.958E-03   0.411E-04 0.214E-03 0.102E-02   -.979E-05 0.115E-04 -.368E-04   0.186E-05 0.120E-05 -.620E-06
   0.119E-02 -.285E-02 -.264E-02   -.129E-02 0.297E-02 0.279E-02   0.559E-04 -.580E-04 -.109E-03   -.212E-05 -.583E-05 0.655E-05
   0.817E-03 -.118E-02 -.108E-02   -.853E-03 0.125E-02 0.115E-02   0.157E-04 -.359E-04 -.498E-04   0.436E-05 0.492E-05 -.310E-05
   -.996E-03 -.812E-03 -.743E-03   0.111E-02 0.888E-03 0.799E-03   -.552E-04 -.445E-04 -.352E-04   -.625E-05 0.427E-05 -.571E-05
   -.100E-02 -.212E-02 -.190E-02   0.104E-02 0.224E-02 0.207E-02   -.207E-04 -.547E-04 -.121E-03   0.598E-05 -.914E-05 0.455E-05
   0.291E-02 -.514E-03 -.922E-02   -.314E-02 0.578E-03 0.982E-02   0.110E-03 -.293E-04 -.434E-03   0.248E-05 0.290E-05 0.124E-04
   0.199E-02 0.109E-02 -.209E-02   -.203E-02 -.112E-02 0.216E-02   0.295E-04 0.954E-05 -.515E-04   -.979E-05 0.818E-06 -.443E-06
   -.186E-02 0.493E-03 -.122E-02   0.202E-02 -.472E-03 0.132E-02   -.827E-04 -.140E-04 -.789E-04   0.218E-05 0.667E-05 0.765E-05
   -.300E-02 -.377E-03 -.518E-02   0.310E-02 0.491E-03 0.578E-02   -.424E-04 -.477E-04 -.410E-03   -.328E-05 -.995E-06 0.684E-05
   0.332E-01 0.295E-01 0.318E-01   -.350E-01 -.317E-01 -.365E-01   0.785E-03 0.101E-02 0.329E-02   0.182E-06 -.133E-05 0.305E-04
   -.834E-02 -.127E-02 0.114E-01   0.828E-02 0.732E-03 -.122E-01   0.869E-04 0.309E-03 0.536E-03   0.596E-05 -.310E-05 -.745E-05
   -.441E-02 0.120E-02 0.126E-02   0.472E-02 -.147E-02 -.140E-02   -.168E-03 0.144E-03 0.101E-03   0.746E-05 -.902E-06 -.367E-05
   -.627E-02 0.104E-01 -.109E-02   0.752E-02 -.122E-01 0.432E-03   -.700E-03 0.987E-03 0.386E-03   -.884E-05 -.880E-05 -.862E-05
   0.260E-02 -.466E-02 0.380E-02   -.289E-02 0.488E-02 -.397E-02   0.156E-03 -.106E-03 0.120E-03   -.466E-05 -.531E-05 -.339E-05
   -.135E-02 -.372E-02 0.256E-02   0.152E-02 0.398E-02 -.264E-02   -.952E-04 -.139E-03 0.634E-04   0.730E-06 -.239E-05 0.443E-05
   -.174E-02 -.887E-03 0.779E-03   0.191E-02 0.941E-03 -.839E-03   -.859E-04 -.263E-04 0.370E-04   -.580E-06 -.329E-05 0.619E-05
   0.516E-03 -.405E-03 0.116E-02   -.577E-03 0.512E-03 -.124E-02   0.387E-04 -.690E-04 0.567E-04   -.471E-06 0.109E-04 0.752E-05
   0.259E-02 -.886E-02 -.559E-03   -.287E-02 0.927E-02 0.553E-03   0.153E-03 -.216E-03 0.500E-05   -.474E-05 0.327E-05 -.154E-05
   0.177E-02 -.196E-02 0.876E-03   -.193E-02 0.219E-02 -.914E-03   0.941E-04 -.145E-03 0.242E-04   -.260E-05 0.120E-04 -.280E-06
   -.174E-02 -.126E-02 0.358E-03   0.190E-02 0.139E-02 -.380E-03   -.871E-04 -.619E-04 0.161E-04   -.156E-05 -.332E-05 0.238E-05
   -.259E-02 -.525E-02 -.533E-03   0.287E-02 0.564E-02 0.479E-03   -.150E-03 -.206E-03 0.186E-04   0.598E-06 -.581E-05 0.123E-04
   0.329E-01 -.667E-01 -.630E-01   -.347E-01 0.718E-01 0.697E-01   0.781E-03 -.123E-02 -.291E-02   0.849E-05 -.630E-05 -.281E-04
   0.471E-02 0.593E-02 0.569E-02   -.475E-02 -.608E-02 -.580E-02   0.226E-04 0.782E-04 0.123E-03   -.300E-05 0.534E-05 -.601E-05
   -.440E-02 0.948E-03 0.713E-03   0.471E-02 -.852E-03 -.765E-03   -.162E-03 -.541E-04 0.514E-04   0.911E-06 0.612E-06 -.689E-05
   -.192E-01 -.578E-02 -.672E-02   0.205E-01 0.691E-02 0.677E-02   -.645E-03 -.598E-03 -.240E-04   0.112E-05 0.131E-05 -.944E-05
   0.293E-02 -.504E-03 -.924E-02   -.316E-02 0.571E-03 0.984E-02   0.112E-03 -.286E-04 -.423E-03   0.183E-05 -.585E-06 -.739E-05
   -.301E-02 -.374E-03 -.520E-02   0.311E-02 0.490E-03 0.580E-02   -.510E-04 -.472E-04 -.418E-03   0.101E-04 -.380E-05 0.767E-05
   -.185E-02 0.504E-03 -.121E-02   0.203E-02 -.473E-03 0.132E-02   -.920E-04 -.147E-04 -.784E-04   0.534E-06 -.456E-05 -.766E-07
   0.198E-02 0.110E-02 -.208E-02   -.203E-02 -.112E-02 0.215E-02   0.288E-04 0.853E-05 -.399E-04   -.345E-06 -.297E-05 -.155E-04
   0.118E-02 -.286E-02 -.263E-02   -.130E-02 0.298E-02 0.280E-02   0.565E-04 -.625E-04 -.107E-03   0.501E-05 0.644E-06 -.382E-05
   -.100E-02 -.212E-02 -.191E-02   0.104E-02 0.225E-02 0.208E-02   -.211E-04 -.580E-04 -.113E-03   0.273E-05 -.883E-05 -.282E-05
   -.101E-02 -.813E-03 -.748E-03   0.111E-02 0.888E-03 0.800E-03   -.544E-04 -.346E-04 -.333E-04   0.194E-05 -.771E-05 -.433E-05
   0.828E-03 -.118E-02 -.108E-02   -.854E-03 0.124E-02 0.115E-02   0.216E-04 -.384E-04 -.470E-04   -.118E-04 0.750E-05 -.897E-05
   0.119E-02 -.910E-03 -.650E-03   -.129E-02 0.924E-03 0.669E-03   0.518E-04 -.124E-05 -.984E-05   -.887E-06 -.519E-05 -.326E-05
   -.283E-04 -.244E-03 -.961E-03   0.391E-04 0.218E-03 0.101E-02   -.351E-05 0.630E-05 -.395E-04   -.205E-05 0.118E-04 0.726E-05
   -.100E-02 -.518E-03 -.393E-03   0.111E-02 0.519E-03 0.419E-03   -.502E-04 -.713E-06 -.143E-04   -.524E-05 0.183E-06 -.530E-05
   -.157E-03 -.118E-02 -.132E-03   0.146E-03 0.122E-02 0.909E-04   0.103E-04 -.174E-04 0.306E-04   -.222E-05 0.392E-06 -.315E-05
[...]
   -.284E-02 0.117E-02 -.248E-02   0.323E-02 -.124E-02 0.281E-02   -.599E-03 0.107E-03 -.468E-03   -.231E-04 -.167E-05 0.138E-04
   0.539E-03 0.259E-02 -.574E-02   -.482E-03 -.286E-02 0.620E-02   -.877E-04 0.368E-03 -.644E-03   0.454E-05 0.140E-06 0.619E-05
   0.191E-02 -.266E-02 -.386E-02   -.214E-02 0.281E-02 0.409E-02   0.362E-03 -.189E-03 -.315E-03   0.683E-05 -.191E-04 0.534E-05
   -.726E-03 -.246E-02 -.256E-02   0.790E-03 0.264E-02 0.275E-02   -.658E-04 -.221E-03 -.264E-03   -.248E-04 -.151E-04 -.226E-05
   -.175E-02 -.116E-02 -.149E-02   0.193E-02 0.124E-02 0.166E-02   -.355E-03 -.100E-03 -.243E-03   0.308E-04 -.111E-04 0.116E-04
   0.571E-03 -.121E-02 -.255E-02   -.581E-03 0.126E-02 0.274E-02   0.541E-04 -.928E-04 -.262E-03   -.211E-04 0.161E-04 0.210E-05
   0.194E-02 -.267E-02 -.385E-02   -.214E-02 0.281E-02 0.407E-02   0.364E-03 -.184E-03 -.321E-03   -.219E-04 -.177E-04 0.127E-04
   0.543E-03 -.122E-02 -.255E-02   -.581E-03 0.127E-02 0.274E-02   0.532E-04 -.102E-03 -.273E-03   0.820E-05 0.326E-04 0.118E-04
   -.171E-02 -.115E-02 -.149E-02   0.193E-02 0.124E-02 0.165E-02   -.357E-03 -.918E-04 -.243E-03   -.320E-05 -.281E-04 0.138E-04
   -.764E-03 -.247E-02 -.253E-02   0.790E-03 0.263E-02 0.273E-02   -.654E-04 -.228E-03 -.254E-03   0.115E-04 0.230E-05 -.196E-04
   0.353E-02 0.266E-02 -.108E-01   -.409E-02 -.281E-02 0.114E-01   0.917E-03 0.182E-03 -.849E-03   -.279E-05 0.162E-04 0.352E-05
   0.540E-03 0.260E-02 -.575E-02   -.484E-03 -.286E-02 0.621E-02   -.909E-04 0.370E-03 -.649E-03   -.347E-07 -.959E-05 0.100E-04
   -.288E-02 0.114E-02 -.247E-02   0.323E-02 -.124E-02 0.280E-02   -.601E-03 0.885E-04 -.459E-03   0.152E-04 0.397E-04 -.791E-06
   -.121E-02 0.108E-02 -.572E-02   0.134E-02 -.104E-02 0.619E-02   -.210E-03 -.464E-04 -.639E-03   -.119E-06 -.178E-04 -.825E-05
   0.456E-02 0.145E+00 -.169E-01   -.288E-12 -.965E-12 -.116E-11   -.448E-02 -.145E+00 0.168E-01   -.387E-04 -.405E-03 0.770E-04

 POSITION                                       TOTAL-FORCE (eV/Angst)
      1.98633      1.98633      5.78046        -0.001006      0.003949      0.003889
      5.95899      1.98633      5.78046         0.000597      0.000538      0.000012
      9.93166      1.98633      5.78046         0.000147      0.000046     -0.000011
     13.90432      1.98633      5.78046        -0.000020     -0.000069     -0.000004
      1.98633      5.95899      5.78046        -0.000135      0.000195     -0.000004
      5.95899      5.95899      5.78046         0.000128      0.000179     -0.000023
      9.93166      5.95899      5.78046         0.000074      0.000062     -0.000003
     13.90432      5.95899      5.78046        -0.000073      0.000108     -0.000017
      1.98633      9.93166      5.78046        -0.000133      0.000115     -0.000056
      5.95899      9.93166      5.78046        -0.000023      0.000053     -0.000024
      9.93166      9.93166      5.78046         0.000074      0.000030     -0.000018
     13.90432      9.93166      5.78046         0.000078      0.000121     -0.000016
      1.98633     13.90432      5.78046        -0.000997     -0.001140     -0.001416
      5.95899     13.90432      5.78046         0.000545     -0.000836     -0.000281
      9.93166     13.90432      5.78046         0.000148     -0.000124     -0.000046
     13.90432     13.90432      5.78046         0.000032     -0.000227     -0.000294
      1.98633      1.98633     13.48773        -0.000118     -0.000098      0.000118
      5.95899      1.98633     13.48773        -0.000005     -0.000034      0.000028
      9.93166      1.98633     13.48773         0.000081     -0.000046      0.000028
     13.90432      1.98633     13.48773         0.000038     -0.000116      0.000203
      1.98633      5.95899     13.48773        -0.000052      0.000011      0.000004
      5.95899      5.95899     13.48773        -0.000003      0.000023     -0.000013
      9.93166      5.95899     13.48773         0.000048      0.000003      0.000004
     13.90432      5.95899     13.48773         0.000004     -0.000005      0.000019
      1.98633      9.93166     13.48773        -0.000053      0.000062      0.000049
      5.95899      9.93166     13.48773        -0.000016      0.000036      0.000020
      9.93166      9.93166     13.48773         0.000049      0.000038      0.000015
     13.90432      9.93166     13.48773         0.000018      0.000063      0.000054
      1.98633     13.90432     13.48773        -0.000117      0.000040      0.000172
      5.95899     13.90432     13.48773        -0.000020     -0.000014      0.000017
      9.93166     13.90432     13.48773         0.000080      0.000016      0.000028
     13.90432     13.90432     13.48773         0.000053      0.000068      0.000191
      1.98633      1.98633      1.92682        -0.000991     -0.001163     -0.001390
      5.95899      1.98633      1.92682         0.000032     -0.000231     -0.000296
      9.93166      1.98633      1.92682         0.000147     -0.000124     -0.000046
     13.90432      1.98633      1.92682         0.000543     -0.000832     -0.000278
      1.98633      5.95899      1.92682        -0.000133      0.000113     -0.000053
      5.95899      5.95899      1.92682         0.000079      0.000121     -0.000016
      9.93166      5.95899      1.92682         0.000075      0.000028     -0.000017
     13.90432      5.95899      1.92682        -0.000023      0.000051     -0.000022
      1.98633      9.93166      1.92682        -0.000132      0.000195     -0.000002
      5.95899      9.93166      1.92682        -0.000072      0.000109     -0.000014
      9.93166      9.93166      1.92682         0.000075      0.000061     -0.000004
     13.90432      9.93166      1.92682         0.000128      0.000178     -0.000023
      1.98633     13.90432      1.92682        -0.000984      0.003889      0.003843
      5.95899     13.90432      1.92682        -0.000021     -0.000067     -0.000003
      9.93166     13.90432      1.92682         0.000147      0.000045     -0.000008
     13.90432     13.90432      1.92682         0.000597      0.000537      0.000014
      1.98633      1.98633      9.63410        -0.000118      0.000040      0.000173
      5.95899      1.98633      9.63410         0.000055      0.000067      0.000194
      9.93166      1.98633      9.63410         0.000084      0.000015      0.000033
     13.90432      1.98633      9.63410        -0.000020     -0.000015      0.000017
      1.98633      5.95899      9.63410        -0.000052      0.000061      0.000051
      5.95899      5.95899      9.63410         0.000020      0.000063      0.000053
      9.93166      5.95899      9.63410         0.000049      0.000036      0.000015
     13.90432      5.95899      9.63410        -0.000016      0.000035      0.000022
      1.98633      9.93166      9.63410        -0.000051      0.000010      0.000006
      5.95899      9.93166      9.63410         0.000005     -0.000006      0.000019
      9.93166      9.93166      9.63410         0.000049      0.000004      0.000006
     13.90432      9.93166      9.63410        -0.000002      0.000022     -0.000014
[...]
      5.95899      1.98633     11.56092        -0.000081     -0.000014     -0.000174
      9.93166      1.98633     11.56092        -0.000232      0.000034     -0.000129
     13.90432      1.98633     11.56092        -0.000027      0.000103     -0.000173
      1.98633      5.95899     11.56092         0.000137     -0.000051     -0.000088
      5.95899      5.95899     11.56092        -0.000026     -0.000058     -0.000076
      9.93166      5.95899     11.56092        -0.000136     -0.000028     -0.000067
     13.90432      5.95899     11.56092         0.000023     -0.000020     -0.000074
      1.98633      9.93166     11.56092         0.000140     -0.000052     -0.000087
      5.95899      9.93166     11.56092         0.000022     -0.000021     -0.000073
      9.93166      9.93166     11.56092        -0.000137     -0.000029     -0.000066
     13.90432      9.93166     11.56092        -0.000029     -0.000060     -0.000073
      1.98633     13.90432     11.56092         0.000349      0.000056     -0.000228
      5.95899     13.90432     11.56092        -0.000035      0.000103     -0.000172
      9.93166     13.90432     11.56092        -0.000235      0.000034     -0.000131
     13.90432     13.90432     11.56092        -0.000076     -0.000013     -0.000173
    total drift:                                0.000033     -0.000797      0.000007

  FREE ENERGIE OF THE ION-ELECTRON SYSTEM (eV)
  free  energy   TOTEN  =     -1641.83204114 eV

  energy  without entropy=    -1641.83204114  energy(sigma->0) =    -1641.83204114