 vasp.6.2.0 18Jan21 (build Feb  9 2021 11:43:09) complex
 executed on       CrayXC_GCC_OMP date 2021.05.06  04:55:26

 INCAR:
   ALGO = all
   EDIFF = 9.5e-05
   EDIFFG = -0.03
   ENCUT = 520
   GGA = pe
   IBRION = 2
   ISIF = 2
   ISMEAR = 0
   ISPIN = 2
   KPAR = 8
   LASPH = .TRUE.
   LDAU = .TRUE.
   LDAUJ = 0.0 0.0 0.0 0.0
   LDAUL = 2 -1 -1 -1
   LDAUTYPE = 2
   LDAUU = 4.0 0.0 0.0 0.0
   LMAXMIX = 4
   LORBIT = 10
   LREAL = .FALSE.
   LVHAR = .TRUE.
   LWAVE = .FALSE.
   MAGMOM = 5 5 5 5 5 5 5 5 5 5 5 5 5 5 5 5 5 5 5 5 5 5 5 5 0.6 0.6 0.6 0.6 0.6 0.6 0.6 0.6 0.6 0.6 0.6 0.6 0.6 0.6 0.6 0.6 0.6 0.6 0.6 0.6 0.6 0.6 0.6 0.6 0.6 0.6 0.6 0.6 0.6 0.6 0.6 0.6 0.6 0.6 0.6 0.6 0.6 0.6 0.6 0.6 0.6 0.6 0.6 0.6 0.6 0.6 0.6 0.6 0.6 0.6 0.6 0.6 0.6 0.6 0.6 0.6 0.6 0.6 0.6 0.6 0.6 0.6 0.6 0.6 0.6 0.6 0.6 0.6 0.6 0.6 0.6
   NCORE = 4
   NEDOS = 2000
   NELECT = 668
   NELM = 200
   NELMIN = 4
   NSW = 60
   NWRITE = 1
   PREC = accurate
   SIGMA = 0.05

 POTCAR:    PAW_PBE Fe_pv 02Aug2007
 POTCAR:    PAW_PBE Li_sv 10Sep2004
 POTCAR:    PAW_PBE O 08Apr2002
 POTCAR:    PAW_PBE S 06Sep2000
 POTCAR:    PAW_PBE Fe_pv 02Aug2007

 POTCAR:    PAW_PBE Li_sv 10Sep2004

 POTCAR:    PAW_PBE O 08Apr2002

 POTCAR:    PAW_PBE S 06Sep2000

  PAW_PBE Fe_pv 02Aug2007               :
  PAW_PBE Li_sv 10Sep2004               :
  PAW_PBE O 08Apr2002                   :
  PAW_PBE S 06Sep2000                   :

 POSCAR: # Compound: Fe24Li31O16S24. Old comment:
  positions in direct lattice
 exchange correlation table for  LEXCH =        8
   RHO(1)=    0.500       N(1)  =     2000
   RHO(2)=  100.500       N(2)  =     4000

 ion  position               nearest neighbor table
   1  0.263  0.662  0.602-  57 2.12  75 2.41  88 2.61  94 2.65
   2  0.235  0.335  0.399-  59 2.12  77 2.39  92 2.62  74 2.62
   3  0.124  0.326  0.802-  68 2.04  56 2.04  76 2.64  77 2.64  72 2.79  73 2.79
   4  0.385  0.584  0.815-  69 1.99  57 2.05  88 2.57  84 2.64  77 2.72
   5  0.875  0.174  0.197-  62 2.02  58 2.02  74 2.64  87 2.65  85 2.75
   6  0.125  0.422  0.185-  63 2.02  59 2.02  75 2.62  74 2.62  73 2.68  72 2.70
   7  0.015  0.916  0.602-  61 2.12  81 2.41  94 2.62  76 2.62
   8  0.985  0.585  0.399-  63 2.11  83 2.40  80 2.61  74 2.62
   9  0.865  0.573  0.803-  60 1.98  56 2.05  82 2.60  78 2.75  83 2.77
  10  0.127  0.829  0.815-  57 2.03  61 2.03  83 2.61  94 2.61  90 2.68  79 2.73
  11  0.627  0.426  0.198-  66 2.02  62 2.02  80 2.65  93 2.68  78 2.75
  12  0.873  0.669  0.186-  67 2.02  63 2.02  80 2.62  81 2.63  78 2.66  79 2.72
  13  0.762  0.163  0.602-  65 2.12  87 2.41  82 2.61  76 2.65
  14  0.735  0.834  0.399-  67 2.12  89 2.40  80 2.61  86 2.61
  15  0.622  0.816  0.803-  60 1.98  64 2.05  88 2.60  84 2.74  89 2.77
  16  0.876  0.081  0.815-  65 2.03  61 2.03  89 2.61  76 2.61  72 2.68  85 2.72
  17  0.377  0.676  0.197-  70 2.02  66 2.03  86 2.63  75 2.66  84 2.75
  18  0.623  0.920  0.186-  67 2.03  71 2.03  86 2.61  87 2.62  84 2.66  85 2.72
  19  0.520  0.421  0.604-  69 2.07  93 2.42  88 2.58  82 2.58
  20  0.484  0.084  0.400-  71 2.11  95 2.39  92 2.61  86 2.61
  21  0.376  0.075  0.802-  68 2.04  64 2.04  94 2.64  95 2.64  90 2.79
  22  0.630  0.339  0.815-  69 1.99  65 2.05  82 2.57  78 2.64  95 2.72
  23  0.125  0.924  0.197-  70 2.02  58 2.02  92 2.65  81 2.66  79 2.75
  24  0.375  0.172  0.185-  59 2.02  71 2.02  92 2.63  93 2.63  91 2.68  90 2.70
  25  0.481  0.480  0.999-  69 1.99  66 2.00  91 2.62  73 2.62
  26  0.023  0.526  0.997-  56 1.97  63 2.03  79 2.53  73 2.56
  27  0.978  0.382  0.607-  56 2.05  74 2.49  82 2.61  76 2.66
  28  0.021  0.120  0.393-  58 2.05  76 2.48  74 2.64  92 2.64
  29  0.878  0.336  0.847-  56 1.94  65 1.98  72 2.54  78 2.56
  30  0.122  0.568  0.777-  56 1.95  57 2.00  77 2.47  83 2.47
  31  0.124  0.163  0.155-  58 1.95  59 1.99  72 2.56  90 2.56
  32  0.378  0.433  0.224-  66 1.95  59 2.00  75 2.49  93 2.49
  33  0.227  0.724  0.003-  70 1.99  57 2.01  73 2.53  79 2.56
  34  0.765  0.763  0.992-  60 1.94  67 2.04  85 2.66  79 2.66
  35  0.720  0.623  0.612-  60 1.99  80 2.52  88 2.57  82 2.58
  36  0.773  0.371  0.392-  62 2.03  82 2.46  80 2.62  74 2.62
  37  0.874  0.817  0.770-  60 1.89  61 1.99  89 2.48  83 2.48
  38  0.875  0.411  0.155-  62 1.96  63 1.99  78 2.53  72 2.55
  39  0.127  0.683  0.226-  70 1.95  63 1.99  75 2.48  81 2.49
  40  0.974  0.974  0.003-  58 1.98  61 2.02  85 2.53  79 2.53
  41  0.527  0.022  0.997-  64 1.97  71 2.03  85 2.53  91 2.56
  42  0.480  0.880  0.608-  64 2.05  86 2.48  88 2.61  94 2.66
  43  0.523  0.621  0.391-  66 2.05  88 2.47  86 2.62  80 2.63
  44  0.375  0.839  0.847-  64 1.94  57 1.98  90 2.54  84 2.56
  45  0.624  0.066  0.777-  64 1.95  65 2.00  95 2.47  89 2.47
  46  0.624  0.661  0.148-  66 1.94  67 1.98  84 2.53  78 2.54
  47  0.876  0.931  0.222-  58 1.95  67 1.99  87 2.49  81 2.50
  48  0.723  0.228  0.004-  62 1.99  65 2.01  91 2.52  85 2.56
  49  0.277  0.276  0.995-  68 1.98  59 2.04  91 2.53  73 2.53
  50  0.227  0.129  0.607-  68 2.05  92 2.48  94 2.63  76 2.63
  51  0.273  0.870  0.393-  70 2.05  94 2.48  86 2.63  92 2.64
  52  0.127  0.088  0.845-  68 1.96  61 1.99  72 2.56  90 2.56
  53  0.373  0.315  0.767-  69 1.91  68 1.94  95 2.48  77 2.48
  54  0.373  0.914  0.155-  70 1.95  71 1.99  84 2.53  90 2.56
  55  0.626  0.184  0.227-  62 1.95  71 1.99  87 2.49  93 2.49
  56  0.997  0.452  0.807-  29 1.94  30 1.95  26 1.97   3 2.04   9 2.05  27 2.05
  57  0.252  0.702  0.810-  44 1.98  30 2.00  33 2.01  10 2.03   4 2.05   1 2.12
  58  0.000  0.049  0.194-  31 1.95  47 1.95  40 1.98  23 2.02   5 2.02  28 2.05
  59  0.250  0.298  0.192-  31 1.99  32 2.00  24 2.02   6 2.02  49 2.04   2 2.12
  60  0.754  0.704  0.801-  37 1.89  34 1.94   9 1.98  15 1.98  35 1.99
[...]
  81  0.994  0.837  0.367-   7 2.41  39 2.49  47 2.50  12 2.63  23 2.66
  82  0.747  0.401  0.630-  36 2.46  22 2.57  35 2.58  19 2.58   9 2.60  27 2.61  13 2.61
  83  0.009  0.664  0.633-   8 2.40  30 2.47  37 2.48  10 2.61   9 2.77
  84  0.498  0.753  0.003-  54 2.53  46 2.53  44 2.56   4 2.64  18 2.66  15 2.74  17 2.75
  85  0.751  0.002  0.003-  40 2.53  41 2.53  48 2.56  34 2.66  18 2.72  16 2.72   5 2.75
  86  0.505  0.846  0.367-  42 2.48  18 2.61  14 2.61  20 2.61  43 2.62  51 2.63  17 2.63
  87  0.745  0.086  0.366-  13 2.41  55 2.49  47 2.49  18 2.62   5 2.65
  88  0.493  0.654  0.630-  43 2.47  35 2.57   4 2.57  19 2.58  15 2.60  42 2.61   1 2.61
  89  0.756  0.917  0.632-  14 2.40  45 2.47  37 2.48  16 2.61  15 2.77
  90  0.250  0.001  0.000-  44 2.54  54 2.56  52 2.56  31 2.56  10 2.68  24 2.70  21 2.79
  91  0.500  0.249  0.003-  48 2.52  49 2.53  41 2.56  25 2.62  24 2.68
  92  0.255  0.097  0.367-  50 2.48  20 2.61   2 2.62  24 2.63  28 2.64  51 2.64  23 2.65
  93  0.495  0.338  0.369-  19 2.42  55 2.49  32 2.49  24 2.63  11 2.68
  94  0.246  0.904  0.634-  51 2.48  10 2.61   7 2.62  50 2.63  21 2.64   1 2.65  42 2.66
  95  0.507  0.159  0.633-  20 2.39  45 2.47  53 2.48  21 2.64  22 2.72

  LATTYP: Found a triclinic cell.
 ALAT       =    11.1967222147
 B/A-ratio  =     0.9425406780
 C/A-ratio  =     1.0000000005
 COS(alpha) =     0.0093862067
 COS(beta)  =     0.0432045039
 COS(gamma) =     0.2673139189

  Lattice vectors:

 A1 = (   7.3433505600,   7.9467915400,  -2.8792872600)
 A2 = (   0.0478291200,   0.1071026000, -10.5527142700)
 A3 = (  -7.8866538400,   7.9475567000,  -0.0601846200)

Analysis of symmetry for initial positions (statically):
 Subroutine PRICEL returns:
 Original cell was already a primitive cell.

 Routine SETGRP: Setting up the symmetry group for a
 triclinic supercell.

 Subroutine GETGRP returns: Found  1 space group operations
 (whereof  1 operations were pure point group operations)
 out of a pool of  2 trial point group operations.

The static configuration has the point symmetry C_1 .

Analysis of symmetry for dynamics (positions and initial velocities):
 Subroutine PRICEL returns:
 Original cell was already a primitive cell.

[...]

The dynamic configuration has the point symmetry C_1 .

Analysis of structural, dynamic, and magnetic symmetry:
 Subroutine PRICEL returns:
 Original cell was already a primitive cell.

 Routine SETGRP: Setting up the symmetry group for a
 triclinic supercell.

 Subroutine GETGRP returns: Found  1 space group operations
 (whereof  1 operations were pure point group operations)
 out of a pool of  2 trial point group operations.

The overall configuration has the point symmetry C_1 .

 Subroutine INISYM returns: Found  1 space group operations
 (whereof  1 operations are pure point group operations),
 and found     1 'primitive' translations

                                     Primitive cell

  volume of cell :    1273.6998

  direct lattice vectors                    reciprocal lattice vectors
     7.886653840 -7.947556700  0.060184620     0.065597751 -0.060732181 -0.000319074
     7.343350560  7.946791540 -2.879287260     0.065841142  0.065343877  0.000961613
    -0.047829120 -0.107102600 10.552714270     0.017590506  0.018175318  0.095026544

  length of vectors
    11.196722220 11.196722215 10.553366148     0.089395551  0.092767467  0.098335203

  position of ions in fractional coordinates (direct lattice)
     0.262729870  0.662350760  0.602063920
     0.235329410  0.334925200  0.399081360
     0.124013870  0.326390970  0.802444980
     0.385334990  0.583670390  0.815083470
     0.874728190  0.173862230  0.196974450
     0.125289330  0.421508100  0.185345350
     0.015152130  0.915729250  0.601521650
     0.984926450  0.585006450  0.399382850
     0.865374650  0.572593380  0.802855670
     0.126818400  0.829419100  0.815242120
     0.626956500  0.426240530  0.197703400
     0.873076980  0.669355620  0.185906760
     0.761652870  0.162799660  0.602138350
     0.734858570  0.834306620  0.398594650
     0.621935710  0.816161200  0.802792060
     0.875510540  0.080565660  0.815231770
     0.376708030  0.675996040  0.196867580
     0.623378970  0.920011700  0.186099510
     0.520168030  0.421435540  0.604185610
     0.484120480  0.084442900  0.399894360
     0.375705670  0.074657010  0.802416270
     0.629840670  0.339000090  0.815130580
     0.124810730  0.924116760  0.196965590
     0.375142720  0.171604330  0.185360250
     0.481152960  0.480482150  0.998583820
     0.022790620  0.525845300  0.997177680
     0.978075450  0.382424070  0.607460710
     0.021422830  0.120347430  0.392917890
     0.877669410  0.336477820  0.847250040
     0.122463380  0.568006810  0.777075700
     0.123915170  0.162821270  0.155295080
     0.377858090  0.433023330  0.223680390
     0.226662790  0.724156800  0.003391940
     0.764681990  0.762630760  0.991785200
     0.719744270  0.622969640  0.612306800
     0.773167310  0.370955560  0.392310110
     0.874166210  0.816659410  0.769760380
     0.874989360  0.411370800  0.154803790
     0.126770520  0.682938440  0.225566130
     0.973579810  0.974320680  0.002637500
     0.526637620  0.022360060  0.997368220
     0.480384490  0.879775000  0.607906430
     0.522930850  0.621306480  0.391179900
     0.374782050  0.839494530  0.847302930
     0.623824080  0.066499400  0.776920580
     0.623523200  0.660917800  0.148373300
[...]
   -.187E+01 -.253E+02 -.115E+03   0.210E+01 0.250E+02 0.114E+03   -.239E+00 0.279E+00 0.128E+01
   -.178E+02 -.321E+02 -.129E+03   0.186E+02 0.323E+02 0.130E+03   -.780E+00 -.242E+00 -.112E+01
   0.110E+02 0.158E+02 0.122E+03   -.115E+02 -.156E+02 -.121E+03   0.518E+00 -.184E+00 -.941E+00
   -.430E+02 0.680E+02 0.399E+03   0.441E+02 -.679E+02 -.400E+03   -.115E+01 -.828E-01 0.599E+00
   0.466E+02 -.703E+02 -.410E+03   -.481E+02 0.704E+02 0.411E+03   0.151E+01 -.120E+00 -.889E+00
   0.306E+02 0.338E+02 0.118E+03   -.320E+02 -.359E+02 -.119E+03   0.141E+01 0.204E+01 0.960E+00
   -.275E+01 -.176E+02 -.117E+03   0.297E+01 0.174E+02 0.116E+03   -.235E+00 0.154E+00 0.128E+01
   -.189E+02 -.164E+02 -.129E+03   0.197E+02 0.167E+02 0.130E+03   -.815E+00 -.257E+00 -.128E+01
   0.836E+01 0.275E+02 0.121E+03   -.876E+01 -.273E+02 -.120E+03   0.403E+00 -.207E+00 -.118E+01
   -.584E+02 0.748E+02 0.406E+03   0.604E+02 -.746E+02 -.406E+03   -.206E+01 -.230E+00 -.682E+00
   0.430E+02 -.868E+02 -.409E+03   -.446E+02 0.869E+02 0.410E+03   0.157E+01 -.359E-01 -.122E+01
   0.136E+02 0.227E+02 0.134E+03   -.141E+02 -.230E+02 -.136E+03   0.561E+00 0.278E+00 0.163E+01
   -.404E+02 -.382E+02 -.115E+03   0.413E+02 0.396E+02 0.114E+03   -.915E+00 -.142E+01 0.179E+01
   -.287E+02 -.286E+02 -.132E+03   0.290E+02 0.289E+02 0.134E+03   -.313E+00 -.242E+00 -.128E+01
   0.893E+01 0.194E+02 0.113E+03   -.887E+01 -.192E+02 -.112E+03   -.636E-01 -.155E+00 -.822E+00
   0.103E+02 -.190E+01 -.134E+02   -.105E+02 0.192E+01 0.136E+02   0.178E+00 -.166E-01 -.172E+00
   -.187E+02 0.219E+01 0.171E+02   0.188E+02 -.225E+01 -.177E+02   -.161E+00 0.620E-01 0.665E+00
   0.228E+02 0.168E+02 0.840E+02   -.229E+02 -.166E+02 -.834E+02   0.956E-01 -.167E+00 -.618E+00
   -.231E+02 -.171E+02 -.862E+02   0.232E+02 0.171E+02 0.856E+02   -.105E+00 0.888E-01 0.582E+00
   -.259E+02 -.296E+01 -.168E+02   0.262E+02 0.301E+01 0.167E+02   -.356E+00 -.533E-01 0.170E-01
   0.364E+02 0.270E+01 0.803E+01   -.369E+02 -.281E+01 -.845E+01   0.497E+00 0.119E+00 0.430E+00
   0.253E+02 0.410E+01 0.177E+02   -.257E+02 -.411E+01 -.177E+02   0.349E+00 0.100E-01 -.439E-03
   -.372E+02 -.292E+01 -.117E+02   0.376E+02 0.301E+01 0.120E+02   -.471E+00 -.874E-01 -.335E+00
   0.203E+02 -.688E+00 -.117E+02   -.205E+02 0.713E+00 0.122E+02   0.219E+00 -.249E-01 -.428E+00
   -.656E+01 0.158E+01 0.989E+01   0.654E+01 -.177E+01 -.109E+02   0.196E-01 0.193E+00 0.104E+01
   0.183E+02 0.171E+02 0.888E+02   -.182E+02 -.169E+02 -.877E+02   -.721E-01 -.210E+00 -.110E+01
   -.213E+02 -.157E+02 -.873E+02   0.214E+02 0.155E+02 0.868E+02   -.989E-01 0.109E+00 0.551E+00
   0.390E+02 0.403E+01 0.139E+02   -.400E+02 -.407E+01 -.139E+02   0.105E+01 0.356E-01 0.351E-01
   0.259E+02 0.601E+01 0.175E+02   -.262E+02 -.587E+01 -.177E+02   0.354E+00 -.133E+00 0.154E+00
   -.380E+02 -.403E+01 -.130E+02   0.384E+02 0.408E+01 0.134E+02   -.427E+00 -.503E-01 -.354E+00
   0.208E+02 -.150E+01 -.125E+02   -.210E+02 0.158E+01 0.129E+02   0.234E+00 -.841E-01 -.496E+00
   -.189E+02 0.270E+01 0.167E+02   0.191E+02 -.287E+01 -.173E+02   -.166E+00 0.167E+00 0.647E+00
   0.225E+02 0.161E+02 0.836E+02   -.226E+02 -.161E+02 -.830E+02   0.891E-01 -.412E-01 -.611E+00
   -.206E+02 -.168E+02 -.861E+02   0.207E+02 0.168E+02 0.855E+02   -.128E+00 0.573E-01 0.513E+00
   -.258E+02 -.523E+01 -.167E+02   0.261E+02 0.518E+01 0.166E+02   -.362E+00 0.407E-01 -.152E-03
   0.363E+02 0.257E+01 0.774E+01   -.368E+02 -.265E+01 -.817E+01   0.502E+00 0.790E-01 0.431E+00
   0.265E+02 0.629E+01 0.277E+02   -.268E+02 -.629E+01 -.277E+02   0.329E+00 -.127E-02 -.466E-01
   -.363E+02 -.258E+01 -.907E+01   0.367E+02 0.268E+01 0.943E+01   -.378E+00 -.100E+00 -.365E+00
   0.205E+02 -.247E+01 -.114E+02   -.207E+02 0.259E+01 0.119E+02   0.227E+00 -.126E+00 -.422E+00
   -.199E+02 0.223E+01 0.154E+02   0.201E+02 -.234E+01 -.160E+02   -.217E+00 0.114E+00 0.635E+00
   0.195E+02 0.160E+02 0.853E+02   -.196E+02 -.159E+02 -.847E+02   0.140E+00 -.113E+00 -.632E+00
   -.217E+02 -.173E+02 -.867E+02   0.218E+02 0.171E+02 0.861E+02   -.109E+00 0.136E+00 0.583E+00
   -.264E+02 -.411E+01 -.173E+02   0.267E+02 0.412E+01 0.173E+02   -.368E+00 -.914E-02 0.371E-01
   0.407E+02 0.493E+01 0.189E+02   -.404E+02 -.496E+01 -.191E+02   -.239E+00 0.265E-01 0.185E+00
   0.253E+02 0.217E+01 0.183E+02   -.257E+02 -.238E+01 -.184E+02   0.365E+00 0.210E+00 0.828E-01
   -.383E+02 -.460E+01 -.146E+02   0.387E+02 0.468E+01 0.150E+02   -.411E+00 -.709E-01 -.334E+00
   0.250E+01 0.548E+01 0.550E+02   -.265E+01 -.533E+01 -.556E+02   0.131E+00 -.168E+00 0.638E+00
   0.723E+00 -.107E+02 -.111E+03   -.797E+00 0.106E+02 0.114E+03   0.826E-01 0.100E+00 -.319E+01
   -.129E+02 -.105E+02 -.526E+02   0.134E+02 0.106E+02 0.531E+02   -.425E+00 -.124E+00 -.481E+00
   0.701E+01 0.196E+02 0.107E+03   -.732E+01 -.200E+02 -.111E+03   0.292E+00 0.484E+00 0.316E+01
   0.240E+02 0.930E+01 0.470E+02   -.268E+02 -.928E+01 -.466E+02   0.277E+01 -.193E-01 -.415E+00
[...]
   -.101E+03 0.351E+02 0.198E+03   0.101E+03 -.354E+02 -.199E+03   -.509E+00 0.260E+00 0.100E+01
   0.120E+03 0.721E+01 0.321E+02   -.121E+03 -.712E+01 -.319E+02   0.468E+00 -.104E+00 -.260E+00
   0.200E+01 0.211E+02 0.111E+02   -.200E+01 -.213E+02 -.110E+02   0.272E-02 0.205E+00 -.666E-01
   0.123E+02 0.619E+01 0.110E+02   -.124E+02 -.627E+01 -.111E+02   0.949E-01 0.641E-01 0.665E-01
   0.102E+03 -.326E+02 -.203E+03   -.102E+03 0.328E+02 0.204E+03   0.509E+00 -.164E+00 -.100E+01
   -.115E+03 -.130E+02 -.480E+02   0.115E+03 0.130E+02 0.479E+02   -.237E+00 -.337E-01 0.848E-01
   -.101E+03 0.321E+02 0.199E+03   0.102E+03 -.322E+02 -.200E+03   -.506E+00 0.718E-01 0.106E+01
   0.120E+03 0.136E+02 0.319E+02   -.121E+03 -.136E+02 -.317E+02   0.473E+00 0.367E-01 -.271E+00
   -.125E+01 -.282E+01 0.153E+01   0.127E+01 0.285E+01 -.153E+01   -.157E-01 -.300E-01 0.781E-02
   -.773E+01 -.337E+00 0.174E+02   0.778E+01 0.338E+00 -.175E+02   -.600E-01 -.137E-03 0.154E+00
   0.996E+02 -.361E+02 -.199E+03   -.100E+03 0.363E+02 0.200E+03   0.505E+00 -.179E+00 -.949E+00
   -.107E+03 -.130E+02 -.499E+02   0.108E+03 0.130E+02 0.499E+02   -.211E+00 0.270E-01 0.100E+00
   -.101E+03 0.374E+02 0.199E+03   0.101E+03 -.376E+02 -.199E+03   -.471E+00 0.251E+00 0.955E+00
   0.990E+02 0.227E+01 0.363E+02   -.990E+02 -.215E+01 -.362E+02   -.432E-01 -.111E+00 -.968E-01
   -.177E+01 0.568E-01 0.877E+00   0.881E-12 0.133E-12 -.116E-11   0.175E+01 -.499E-01 -.869E+00

 POSITION                                       TOTAL-FORCE (eV/Angst)
      6.90631      3.11607      4.46290        -0.009250      0.002834      0.000165
      4.29769      0.74696      3.25974         0.007063      0.001368     -0.002142
      3.33839      1.52233      7.53461         0.003202      0.003101     -0.004253
      7.28384      1.48720      6.94467        -0.004439      0.019665     -0.004755
      8.16814     -5.59145      1.63018        -0.000172     -0.006027      0.003419
      4.07338      2.33357      0.74891         0.004174     -0.012788      0.005836
      6.81947      7.09228      3.71091         0.002007      0.001483      0.005902
     12.04308     -3.22078      2.58856         0.002190     -0.001536      0.013736
     10.99069     -2.41546      6.87464         0.006672     -0.007115     -0.006801
      7.05202      5.49609      6.22222        -0.006178      0.005708      0.000844
      8.06564     -1.61679      0.89722        -0.003496     -0.002124     -0.000024
     11.79115     -1.63924      0.08653         0.002431     -0.005404     -0.008059
      7.17293     -4.82828      5.93332        -0.007764     -0.004580     -0.002211
     11.90584      0.74561      1.84718         0.007330      0.001045      0.017315
     10.85937      1.45838      6.15870         0.004327      0.004924     -0.007956
      7.45833     -6.40505      8.42443        -0.007896     -0.013849      0.004275
      7.92565      2.35687      0.15384        -0.004257      0.006962     -0.002522
     11.66343      2.33705     -0.64714         0.005068      0.010693     -0.006895
      7.16996     -0.84985      5.19108         0.004105     -0.004940     -0.015822
      4.41714     -3.21788      4.00551        -0.004350      0.005136     -0.003956
      3.47528     -2.47840      8.27453         0.002503     -0.004584     -0.001695
      7.41528     -2.39930      7.66402        -0.006835     -0.006922     -0.000476
      7.76524      6.33110     -0.57456        -0.000587      0.001867      0.003388
      4.20661     -1.63763      1.48438         0.002258      0.002171     -0.008090
      7.27043     -0.11265      9.18147        -0.002677     -0.001081      0.001353
      3.99001      3.88764      9.01058         0.002270      0.001057      0.001273
     10.49628     -4.80465      5.37085         0.007412     -0.003512     -0.001093
      1.03011      0.74567      3.80174        -0.005608      0.004132      0.000575
      9.35133     -4.38650      8.02150         0.004160      0.001487     -0.005377
      5.10042      3.45728      6.57561         0.009304      0.003586      0.005573
      2.16511      0.29281      1.17438         0.004357      0.002944      0.000383
      6.15266      0.41482      1.13825        -0.006837      0.001632      0.002121
      7.10753      3.95804     -2.03432        -0.003111      0.000026     -0.003835
     11.58276     -0.12447      8.30932        -0.000015      0.001139      0.010226
     10.21579     -0.83539      4.71242        -0.006890      0.000472      0.001189
      8.80758     -3.24291      3.11971         0.006836     -0.005867      0.002818
     12.85328     -0.54117      5.82077         0.009454     -0.001663     -0.008636
      9.91520     -3.70062      0.49971        -0.004518      0.001741      0.001125
      6.00553      4.39751      0.42662         0.000818      0.002762      0.000167
     14.83381      0.00465     -2.71791        -0.008127     -0.002798     -0.005321
      4.26593     -4.11200     10.49187         0.002779      0.001167      0.004235
     10.22227      3.11383      3.91230         0.006430      0.002432      0.000046
      8.66948      0.74290      2.37269         0.001516      0.004550      0.000772
      9.08009      3.59559      6.54649         0.001773     -0.002236     -0.002414
      5.37158     -4.51134      8.04834         0.006543     -0.001495      0.007360
      9.76551      0.28262     -0.29465        -0.006429     -0.000676     -0.000716
     13.73032      0.41408     -0.28529         0.004177     -0.003028     -0.006206
      7.37473     -3.94206     -0.56967        -0.003985     -0.000698     -0.001440
      4.16075     -0.11629      9.72638         0.007549     -0.000043      0.000170
      2.69743     -0.84363      6.05155        -0.015093      0.001626      0.002083
      8.52284      4.70356      1.66355         0.000476     -0.002626     -0.000061
      1.60528     -0.39846      8.66909        -0.006492     -0.000600      0.002203
      5.21289     -0.54485      7.20159         0.015815     -0.003136     -0.013988
      9.64388      4.27575     -0.97420         0.001477     -0.003332      0.002666
      6.27926     -3.53832      1.91090        -0.001007      0.000686      0.004059
     11.14902     -4.41371      7.27571        -0.026263     -0.012256      0.003371
      7.10127      3.48993      6.54253         0.008871      0.004449     -0.005017
      0.35079      0.36310      1.90307         0.005440     -0.002025     -0.006369
      4.15717      0.35796      1.17969        -0.016352      0.008145     -0.005188
     11.08270     -0.48257      6.47001        -0.017227      0.001840      0.001172
[...]
     13.97131     -1.29121      1.52109        -0.002491      0.004419      0.003915
      8.80135     -2.82015      5.54055        -0.002420     -0.015141     -0.001536
      4.91311      5.13279      4.76856         0.003925     -0.003909     -0.007763
      9.46107      2.02833     -2.10822         0.001542     -0.004630     -0.005562
      5.92863     -5.95437      0.06592         0.002652     -0.008750     -0.004191
     10.18165      2.67852      1.47175        -0.006246     -0.004212      0.002660
      6.48831     -5.28492      3.66201         0.009744     -0.007516      0.012196
      8.66570      1.21403      4.79273        -0.000017      0.013562     -0.001313
     12.66105      1.21619      4.08268         0.001099     -0.001134     -0.011254
      1.97764     -1.97918      0.01360         0.001264     -0.002366      0.001180
      5.77496     -1.99133     -0.66366        -0.002618      0.000995     -0.016217
      2.69955     -1.29292      3.61024        -0.002638      0.004035      0.006674
      6.36980     -1.28371      2.94739         0.008014      0.004496      0.012631
      8.53969      5.16570      4.10177         0.004027     -0.010410     -0.001209
      5.14035     -2.83353      6.25163         0.001428      0.004327      0.006036
    total drift:                               -0.013435      0.006839      0.008040

  FREE ENERGIE OF THE ION-ELECTRON SYSTEM (eV)
  free  energy   TOTEN  =      -497.77432284 eV

  energy  without entropy=     -497.76190574  energy(sigma->0) =     -497.76811429

 d Force = 0.9852753E-03[-0.331E-04, 0.200E-02]  d Energy = 0.8740937E-03 0.111E-03
 d Force = 0.1005782E+01[ 0.980E+00, 0.103E+01]  d Ewald  = 0.1005777E+01 0.433E-05

 reached required accuracy - stopping structural energy minimisation

 total charge

[...]

 magnetization (x)

# of ion       s       p       d       tot
    1        0.035   0.026   3.586   3.646
    2        0.036   0.026   3.583   3.645
    3        0.036   0.029   3.536   3.602
    4        0.037   0.029   3.564   3.631
    5        0.036   0.030   3.526   3.592
    6        0.035   0.029   3.562   3.626
    7        0.035   0.026   3.585   3.646
    8        0.036   0.027   3.583   3.646
    9        0.039   0.030   3.514   3.582
   10        0.035   0.029   3.563   3.627
   11        0.037   0.029   3.529   3.595
   12        0.036   0.029   3.561   3.625
   13        0.035   0.026   3.585   3.646
   14        0.035   0.026   3.586   3.647
   15        0.039   0.030   3.515   3.583
   16        0.035   0.029   3.563   3.627
   17        0.037   0.030   3.526   3.593
   18        0.035   0.029   3.561   3.625
   19        0.035   0.029   3.583   3.647
   20        0.036   0.027   3.581   3.643
   21        0.036   0.029   3.537   3.603
   22        0.037   0.029   3.565   3.631
   23        0.037   0.030   3.526   3.592
   24        0.036   0.029   3.561   3.625
   25       -0.000   0.000   0.000   0.000
   26        0.000   0.000   0.000   0.000
   27        0.001   0.002   0.000   0.002
   28        0.001   0.002   0.000   0.002
   29       -0.000  -0.000   0.000  -0.001
   30        0.000   0.001   0.000   0.001
   31       -0.000  -0.000   0.000  -0.000
   32        0.000   0.000   0.000   0.000
   33        0.000   0.000   0.000   0.000
   34       -0.000   0.000   0.000   0.000
   35        0.001   0.002   0.000   0.003
   36        0.001   0.002   0.000   0.003
   37        0.000   0.001   0.000   0.001
   38       -0.000  -0.000   0.000  -0.001
   39        0.000   0.000   0.000   0.001
   40       -0.000   0.000   0.000   0.000
   41       -0.000   0.000   0.000   0.000
   42        0.001   0.002   0.000   0.003
   43        0.001   0.002   0.000   0.003
   44       -0.000  -0.000   0.000  -0.001
   45        0.000   0.001   0.000   0.001
   46       -0.000  -0.000   0.000  -0.000
   47        0.000   0.000   0.000   0.000
   48        0.000   0.000   0.000   0.000
   49       -0.000   0.000   0.000   0.000
   50        0.001   0.002   0.000   0.002
   51        0.001   0.002   0.000   0.003
   52       -0.000  -0.000   0.000  -0.001
   53        0.000   0.001   0.000   0.001
   54       -0.000  -0.000   0.000  -0.000
   55        0.000   0.000   0.000   0.001
   56        0.007   0.056   0.000   0.064
   57        0.012   0.109   0.000   0.121
   58        0.008   0.063   0.000   0.071
   59        0.012   0.112   0.000   0.124
   60        0.007   0.063   0.000   0.070
[...]
   81        0.015   0.064   0.000   0.080
   82        0.015   0.067   0.000   0.082
   83        0.015   0.059   0.000   0.074
   84        0.014   0.035   0.000   0.049
   85        0.013   0.041   0.000   0.055
   86        0.015   0.072   0.000   0.087
   87        0.016   0.064   0.000   0.080
   88        0.015   0.067   0.000   0.082
   89        0.015   0.059   0.000   0.074
   90        0.014   0.043   0.000   0.057
   91        0.013   0.044   0.000   0.058
   92        0.015   0.068   0.000   0.083
   93        0.015   0.061   0.000   0.076
   94        0.015   0.069   0.000   0.084
   95        0.015   0.060   0.000   0.075
tot          1.370   3.471  85.382  90.223