 vasp.6.2.0 18Jan21 (build Feb  9 2021 11:43:09) complex
 executed on       CrayXC_GCC_OMP date 2021.04.15  08:26:46

 INCAR:
   AEXX = 0.25
   ALGO = all
   EDIFF = 2e-05
   EDIFFG = -0.03
   ENCUT = 520
   GGA = pe
   HFSCREEN = 0.207
   IBRION = 2
   ISIF = 3
   ISMEAR = 0
   ISPIN = 2
   KPAR = 24
   LASPH = .TRUE.
   LHFCALC = .TRUE.
   LMAXFOCK = 4
   LORBIT = 11
   LREAL = .FALSE.
   LVHAR = .TRUE.
   LWAVE = .TRUE.
   MAGMOM = 0.6 0.6 0.6 0.6 0.6 0.6 0.6 0.6 0.6 0.6 0.6 0.6 0.6 0.6 0.6 0.6 5 5 5 5
   NCORE = 1
   NEDOS = 2000
   NELM = 200
   NELMIN = 4
   NSW = 60
   NWRITE = 1
   PREC = accurate
   PRECFOCK = fast
   SIGMA = 0.05
   TIME = 0.3

 POTCAR:    PAW_PBE Li_sv 10Sep2004
 POTCAR:    PAW_PBE O 08Apr2002
 POTCAR:    PAW_PBE S 06Sep2000
 POTCAR:    PAW_PBE Fe_pv 02Aug2007
 POTCAR:    PAW_PBE Li_sv 10Sep2004

 POTCAR:    PAW_PBE O 08Apr2002

 POTCAR:    PAW_PBE S 06Sep2000

 POTCAR:    PAW_PBE Fe_pv 02Aug2007

  PAW_PBE Li_sv 10Sep2004               :
  PAW_PBE O 08Apr2002                   :
  PAW_PBE S 06Sep2000                   :
  PAW_PBE Fe_pv 02Aug2007               :

 POSCAR: # Compound: Li8O2S6Fe4. Old comment: LFS
  positions in direct lattice
 exchange correlation table for  LEXCH =        8
   RHO(1)=    0.500       N(1)  =     2000
   RHO(2)=  100.500       N(2)  =     4000

 ion  position               nearest neighbor table
   1  0.807  0.119  0.660-  10 1.92  13 2.36  11 2.49  12 2.53   5 2.60
   2  0.193  0.619  0.660-   9 1.92  14 2.36  12 2.49  11 2.53   6 2.60
   3  0.194  0.184  0.225-   9 1.92  14 2.36  15 2.49  16 2.54   6 2.59
   4  0.806  0.684  0.225-  10 1.92  13 2.36  16 2.49  15 2.54   5 2.59
   5  0.858  0.584  0.442-  10 1.99  11 2.49  16 2.49   4 2.59   1 2.60
   6  0.142  0.084  0.442-   9 1.99  12 2.49  15 2.49   3 2.59   2 2.60
   7  0.954  0.625  0.944-  14 2.45  16 2.52  13 2.53  11 2.54
   8  0.046  0.125  0.944-  13 2.45  15 2.52  14 2.53  12 2.54
   9  0.325  0.344  0.443-   3 1.92   2 1.92  20 1.99   6 1.99  19 2.06
  10  0.675  0.844  0.443-   4 1.92   1 1.92  19 1.99   5 1.99  20 2.06
  11  0.812  0.541  0.675-  17 2.45   5 2.49   1 2.49  20 2.50   2 2.53   7 2.54
  12  0.188  0.041  0.675-  18 2.45   6 2.49   2 2.49  19 2.50   1 2.53   8 2.54
  13  0.708  0.303  0.943-  18 2.34   4 2.36   1 2.36  17 2.40   8 2.45   7 2.53
  14  0.292  0.803  0.943-  17 2.34   3 2.36   2 2.36  18 2.40   7 2.45   8 2.53
  15  0.188  0.575  0.209-  18 2.46   6 2.49   3 2.49  19 2.51   8 2.52   4 2.54
  16  0.812  0.075  0.209-  17 2.46   5 2.49   4 2.49  20 2.51   7 2.52   3 2.54
  17  0.637  0.917  0.941-  14 2.34  13 2.40  11 2.45  16 2.46
  18  0.363  0.417  0.941-  13 2.34  14 2.40  12 2.45  15 2.46
  19  0.418  0.666  0.443-  10 1.99   9 2.06  12 2.50  15 2.51
  20  0.582  0.166  0.443-   9 1.99  10 2.06  11 2.50  16 2.51

  LATTYP: Found a simple monoclinic cell.
 ALAT       =     6.1161615801
 B/A-ratio  =     1.0591657783
 C/A-ratio  =     1.2681556345
 COS(beta)  =    -0.0031731466

  Lattice vectors:

 A1 = (   0.0000000000,   6.1128468500,   0.2013352000)
 A2 = (   6.4780290400,   0.0000000000,   0.0000000000)
 A3 = (   0.0000000000,   0.2307247200,  -7.7528123300)

Analysis of symmetry for initial positions (statically):
 Subroutine PRICEL returns:
 Original cell was already a primitive cell.

 Routine SETGRP: Setting up the symmetry group for a
 simple monoclinic supercell.

 Subroutine GETGRP returns: Found  2 space group operations
 (whereof  1 operations were pure point group operations)
 out of a pool of  4 trial point group operations.

The static configuration has the point symmetry C_1 .
 The point group associated with its full space group is C_1h.

Analysis of symmetry for dynamics (positions and initial velocities):
 Subroutine PRICEL returns:
 Original cell was already a primitive cell.

[...]

The dynamic configuration has the point symmetry C_1 .
 The point group associated with its full space group is C_1h.

Analysis of structural, dynamic, and magnetic symmetry:
 Subroutine PRICEL returns:
 Original cell was already a primitive cell.

 Routine SETGRP: Setting up the symmetry group for a
 simple monoclinic supercell.

 Subroutine GETGRP returns: Found  2 space group operations
 (whereof  1 operations were pure point group operations)
 out of a pool of  4 trial point group operations.

The overall configuration has the point symmetry C_1 .
 The point group associated with its full space group is C_1h.

 Subroutine INISYM returns: Found  2 space group operations
 (whereof  1 operations are pure point group operations),
 and found     1 'primitive' translations

                                     Primitive cell

  volume of cell :     307.3061

  direct lattice vectors                    reciprocal lattice vectors
     6.478029040  0.000000000  0.000000000     0.154367940  0.000000000 -0.000000000
     0.000000000  6.112846850  0.201335200    -0.000000000  0.159185550  0.133722835
     0.000000000 -6.343571570  7.551477130     0.000000000 -0.004244157  0.128859145

  length of vectors
     6.478029040  6.116161580  9.862337812     0.154367940  0.207898619  0.128929020

  position of ions in fractional coordinates (direct lattice)
     0.807011500  0.118680760  0.660131120
     0.192988500  0.618680760  0.660131120
     0.193728480  0.183568460  0.224820690
     0.806271520  0.683568460  0.224820690
     0.858121740  0.583595560  0.442066410
     0.141878260  0.083595560  0.442066410
     0.954009100  0.624516840  0.943600380
     0.045990900  0.124516840  0.943600380
     0.325208790  0.344489290  0.442534470
     0.674791210  0.844489290  0.442534470
     0.812049250  0.541108770  0.675440090
     0.187950750  0.041108770  0.675440090
     0.708248190  0.302666190  0.942664780
     0.291751810  0.802666190  0.942664780
     0.187697590  0.574792690  0.208621850
     0.812302410  0.074792690  0.208621850
     0.636848250  0.917135850  0.941385880
     0.363151750  0.417135850  0.941385880
     0.418470240  0.666222620  0.442593340
     0.581529760  0.166222620  0.442593340

  ion indices of the primitive-cell ions
   primitive index   ion index
                 1           1
                 2           2
                 3           3
                 4           4
                 5           5
                 6           6
                 7           7
                 8           8
                 9           9
                10          10
                11          11
                12          12
                13          13
                14          14
                15          15
                16          16
                17          17
                18          18
                19          19
                20          20

 KPOINTS: # No comment

Automatic generation of k-mesh.
 Grid dimensions read from file:
 generate k-points for:    4    5    3

 Generating k-lattice:

  Cartesian coordinates                     Fractional coordinates (reciprocal lattice)
     0.038591985  0.000000000 -0.000000000     0.250000000  0.000000000  0.000000000
    -0.000000000  0.031837110  0.026744567     0.000000000  0.200000000  0.000000000
     0.000000000 -0.001414719  0.042953048     0.000000000 -0.000000000  0.333333333

  Length of vectors
     0.038591985  0.041579724  0.042976340

  Shift w.r.t. Gamma in fractional coordinates (k-lattice)
     0.000000000  0.000000000  0.000000000

 Subroutine IBZKPT returns following result:

 Found     24 irreducible k-points:

 Following reciprocal coordinates:
            Coordinates               Weight
  0.000000  0.000000  0.000000      1.000000
  0.250000  0.000000  0.000000      2.000000
  0.500000  0.000000  0.000000      1.000000
  0.000000  0.200000  0.000000      2.000000
  0.250000  0.200000  0.000000      4.000000
  0.500000  0.200000  0.000000      2.000000
  0.000000  0.400000  0.000000      2.000000
  0.250000  0.400000  0.000000      4.000000
  0.500000  0.400000  0.000000      2.000000
  0.000000  0.000000  0.333333      2.000000
  0.250000  0.000000  0.333333      4.000000
  0.500000  0.000000  0.333333      2.000000
  0.000000  0.200000  0.333333      2.000000
  0.250000  0.200000  0.333333      4.000000
  0.500000  0.200000  0.333333      2.000000
  0.000000  0.400000  0.333333      2.000000
  0.250000  0.400000  0.333333      4.000000
  0.500000  0.400000  0.333333      2.000000
  0.000000 -0.400000  0.333333      2.000000
  0.250000 -0.400000  0.333333      4.000000
  0.500000 -0.400000  0.333333      2.000000
  0.000000 -0.200000  0.333333      2.000000
  0.250000 -0.200000  0.333333      4.000000
  0.500000 -0.200000  0.333333      2.000000

 Following cartesian coordinates:
            Coordinates               Weight
  0.000000  0.000000  0.000000      1.000000
  0.038592  0.000000  0.000000      2.000000
  0.077184  0.000000  0.000000      1.000000
  0.000000  0.031837  0.026745      2.000000
  0.038592  0.031837  0.026745      4.000000
  0.077184  0.031837  0.026745      2.000000
  0.000000  0.063674  0.053489      2.000000
  0.038592  0.063674  0.053489      4.000000
  0.077184  0.063674  0.053489      2.000000
  0.000000 -0.001415  0.042953      2.000000
  0.038592 -0.001415  0.042953      4.000000
  0.077184 -0.001415  0.042953      2.000000
  0.000000  0.030422  0.069698      2.000000
  0.038592  0.030422  0.069698      4.000000
  0.077184  0.030422  0.069698      2.000000
  0.000000  0.062260  0.096442      2.000000
  0.038592  0.062260  0.096442      4.000000
  0.077184  0.062260  0.096442      2.000000
  0.000000 -0.065089 -0.010536      2.000000
  0.038592 -0.065089 -0.010536      4.000000
  0.077184 -0.065089 -0.010536      2.000000
  0.000000 -0.033252  0.016208      2.000000
  0.038592 -0.033252  0.016208      4.000000
  0.077184 -0.033252  0.016208      2.000000

 Subroutine IBZKPT_HF returns following result:

 Found     60 k-points in 1st BZ
 the following     60 k-points will be used (e.g. in the exchange kernel)
 Following reciprocal coordinates:   # in IRBZ
  0.000000  0.000000  0.000000    0.01666667   1 t-inv F
  0.250000  0.000000  0.000000    0.01666667   2 t-inv F
  0.500000  0.000000  0.000000    0.01666667   3 t-inv F
  0.000000  0.200000  0.000000    0.01666667   4 t-inv F
  0.250000  0.200000  0.000000    0.01666667   5 t-inv F
  0.500000  0.200000  0.000000    0.01666667   6 t-inv F
  0.000000  0.400000  0.000000    0.01666667   7 t-inv F
  0.250000  0.400000  0.000000    0.01666667   8 t-inv F
  0.500000  0.400000  0.000000    0.01666667   9 t-inv F
  0.000000  0.000000  0.333333    0.01666667  10 t-inv F
  0.250000  0.000000  0.333333    0.01666667  11 t-inv F
  0.500000  0.000000  0.333333    0.01666667  12 t-inv F
  0.000000  0.200000  0.333333    0.01666667  13 t-inv F
  0.250000  0.200000  0.333333    0.01666667  14 t-inv F
  0.500000  0.200000  0.333333    0.01666667  15 t-inv F
  0.000000  0.400000  0.333333    0.01666667  16 t-inv F
  0.250000  0.400000  0.333333    0.01666667  17 t-inv F
  0.500000  0.400000  0.333333    0.01666667  18 t-inv F
  0.000000 -0.400000  0.333333    0.01666667  19 t-inv F
  0.250000 -0.400000  0.333333    0.01666667  20 t-inv F
[...]
      2.35251     -3.42186      7.19284         0.036750      0.017820      0.017283
      2.71086      1.26489      3.47637         0.080673      0.004602     -0.011364
      3.76717     -1.79153      3.37570        -0.080673      0.004602     -0.011364
    total drift:                                0.000420     -0.009657      0.004280

  FREE ENERGIE OF THE ION-ELECTRON SYSTEM (eV)
  free  energy   TOTEN  =      -133.40751947 eV

  energy  without entropy=     -133.40751947  energy(sigma->0) =     -133.40751947

 writing wavefunctions

[...]

  free energy =  -0.132157092244E+03  energy without entropy=  -0.132157092244E+03

[...]

 d Force = 0.9573360E-02[ 0.185E-02, 0.173E-01]  d Energy = 0.5887882E-01-0.493E-01
 d Force =-0.1539842E+02[-0.157E+02,-0.151E+02]  d Ewald  = 0.4889729E+02-0.643E+02

 Steepest descent step on ions:
 trial-energy change:   -0.058879  1 .order   -0.058128   -0.111210   -0.005046
  (g-gl).g = 0.111E+00      g.g   = 0.111E+00  gl.gl    = 0.000E+00
 g(Force)  = 0.175E-01   g(Stress)= 0.938E-01 ortho     = 0.000E+00
 gamma     =   0.00000
 trial     =   1.00000
 opt step  =   1.04551  (harmonic =   1.04753) maximal distance =0.01463563
 next E    =  -133.466513   (d E  =  -0.05899)

[...]

 d Force =-0.6652751E-06[ 0.416E-06,-0.175E-05]  d Energy = 0.1934641E-04-0.200E-04
 d Force = 0.7326556E-01[ 0.733E-01, 0.733E-01]  d Ewald  =-0.2266960E+00 0.300E+00

[...]

 d Force =-0.5199201E-05[-0.122E-04, 0.184E-05]  d Energy =-0.1466686E-04 0.947E-05
 d Force = 0.3238828E+00[ 0.324E+00, 0.324E+00]  d Ewald  =-0.1002348E+01 0.133E+01

[...]

 d Force = 0.9794005E-06[ 0.757E-06, 0.120E-05]  d Energy = 0.7025486E-05-0.605E-05
 d Force =-0.1206813E-01[-0.121E-01,-0.121E-01]  d Ewald  = 0.3734628E-01-0.494E-01

[...]

 d Force = 0.9227836E-03[ 0.636E-03, 0.121E-02]  d Energy = 0.1002580E-02-0.798E-04
 d Force =-0.1372843E+01[-0.138E+01,-0.136E+01]  d Ewald  =-0.1339241E+01-0.336E-01

 Conjugate gradient step on ions:
 trial-energy change:   -0.001003  1 .order   -0.001039   -0.001383   -0.000695
  (g-gl).g = 0.127E-02      g.g   = 0.137E-02  gl.gl    = 0.111E+00
 g(Force)  = 0.119E-02   g(Stress)= 0.183E-03 ortho     = 0.102E-03
 gamma     =   0.01141
 trial     =   1.00809
 opt step  =   2.02497  (harmonic =   2.02497) maximal distance =0.00418449
 next E    =  -133.467987   (d E  =  -0.00139)

[...]

 writing wavefunctions

[...]

 eigenvalue-minimisations  :     0
 total energy-change (2. order) : 0.2767288E-01  (-0.1814184E-01)
 number of electron     128.0000037 magnetization      16.0000008
 augmentation part       38.0406813 magnetization      10.4637314

[...]

--------------------------------------- Iteration     11(   9)  ---------------------------------------

 eigenvalue-minimisations  :     0
 total energy-change (2. order) :-0.1007818E-04  (-0.5458088E-05)
 number of electron     128.0000037 magnetization      16.0000008
 augmentation part       38.0345339 magnetization      10.4656151

  free energy =  -0.133468672825E+03  energy without entropy=  -0.133468672825E+03

  average scaling for gradient   0.8047

 average (electrostatic) potential at core
  the test charge radii are     0.7079  0.7215  0.9698  0.9500
  (the norm of the test charge is              1.0000)
       1 -54.4287       2 -54.4287       3 -54.4344       4 -54.4344       5 -55.1788
       6 -55.1788       7 -55.2477       8 -55.2477       9 -64.7952      10 -64.7952
      11 -83.1612      12 -83.1612      13 -83.2239      14 -83.2239      15 -83.1625
      16 -83.1625      17 -72.8902      18 -72.8902      19 -72.6400      20 -72.6400

 E-fermi :   3.1180     XC(G=0):  -7.8631     alpha+bet :-11.2724

 Fermi energy:         3.1179544355

[...]

 k-point    24 :       0.5000   -0.2000    0.3333
  band No.  band energies     occupation
      1     -57.2705      1.00000
      2     -57.2618      1.00000
      3     -57.0781      1.00000
      4     -57.0767      1.00000
      5     -56.8856      1.00000
      6     -56.8853      1.00000
      7     -55.9069      1.00000
      8     -55.9060      1.00000
      9     -55.6546      1.00000
     10     -55.6515      1.00000
     11     -55.4493      1.00000
     12     -55.4487      1.00000
     13     -45.4613      1.00000
     14     -45.4559      1.00000
     15     -45.3883      1.00000
     16     -45.3869      1.00000
     17     -44.6562      1.00000
     18     -44.6560      1.00000
     19     -44.6501      1.00000
     20     -44.6497      1.00000
     21     -16.8665      1.00000
     22     -16.6868      1.00000
     23     -10.5408      1.00000
     24     -10.4362      1.00000
     25     -10.0316      1.00000
     26      -9.9972      1.00000
     27      -9.8849      1.00000
     28      -9.7085      1.00000
     29      -3.6356      1.00000
     30      -3.2729      1.00000
     31      -2.8538      1.00000
     32      -2.8301      1.00000
     33      -2.5944      1.00000
     34      -2.5646      1.00000
     35      -2.4598      1.00000
     36      -2.4470      1.00000
     37      -2.3561      1.00000
     38      -2.2547      1.00000
     39      -2.2197      1.00000
     40      -2.1516      1.00000
     41      -2.0439      1.00000
     42      -2.0369      1.00000
     43      -1.8815      1.00000
     44      -1.7674      1.00000
     45      -1.4269      1.00000
     46      -1.4015      1.00000
     47      -1.2997      1.00000
     48      -1.1480      1.00000
     49      -0.8378      1.00000
     50      -0.8326      1.00000
     51      -0.7587      1.00000
     52      -0.5690      1.00000
     53      -0.4839      1.00000
     54      -0.1176      1.00000
     55      -0.0909      1.00000
     56       0.1237      1.00000
     57       0.1698      1.00000
     58       0.4832      1.00000
     59       0.6623      1.00000
     60       0.7744      1.00000
[...]
     86      10.8757      0.00000
     87      10.9891      0.00000
     88      10.9924      0.00000
     89      11.5099      0.00000
     90      11.8205      0.00000
     91      12.0186      0.00000
     92      12.1185      0.00000
     93      12.4176      0.00000
     94      12.6434      0.00000
     95      12.7826      0.00000
     96      12.8386      0.00000
     97      13.2070      0.00000
     98      13.3162      0.00000
     99      13.4495      0.00000
    100      13.7694      0.00000
 Fermi energy:         3.1179544355

 spin component 2

[...]

 k-point    24 :       0.5000   -0.2000    0.3333
  band No.  band energies     occupation
      1     -51.0230      1.00000
      2     -51.0204      1.00000
      3     -50.9840      1.00000
      4     -50.9830      1.00000
      5     -50.8367      1.00000
      6     -50.8348      1.00000
      7     -50.6890      1.00000
      8     -50.6870      1.00000
      9     -50.6583      1.00000
     10     -50.6415      1.00000
     11     -50.6345      1.00000
     12     -50.6318      1.00000
     13     -45.4514      1.00000
     14     -45.4462      1.00000
     15     -45.3828      1.00000
     16     -45.3815      1.00000
     17     -44.6493      1.00000
     18     -44.6491      1.00000
     19     -44.6432      1.00000
     20     -44.6428      1.00000
     21     -16.5214      1.00000
     22     -16.3472      1.00000
     23     -10.3181      1.00000
     24     -10.2337      1.00000
     25      -9.8183      1.00000
     26      -9.7880      1.00000
     27      -9.6745      1.00000
     28      -9.5034      1.00000
     29      -2.3112      1.00000
     30      -1.9017      1.00000
     31      -1.6186      1.00000
     32      -1.4578      1.00000
     33      -1.1742      1.00000
     34      -1.1034      1.00000
     35      -1.0988      1.00000
     36      -0.9898      1.00000
     37      -0.5468      1.00000
     38      -0.4467      1.00000
     39      -0.2325      1.00000
     40      -0.1351      1.00000
     41      -0.1172      1.00000
     42      -0.0267      1.00000
     43       0.2658      1.00000
     44       0.3421      1.00000
     45       0.6024      1.00000
     46       0.7749      1.00000
     47       0.9219      1.00000
     48       1.1358      1.00000
     49       1.1828      1.00000
     50       1.2652      1.00000
     51       1.5690      1.00000
     52       1.7713      1.00000
     53       2.4150      1.00000
     54       2.5180      1.00000
     55       2.6877      1.00000
     56       2.8326      1.00000
     57       5.8536      0.00000
     58       5.9257      0.00000
     59       5.9367      0.00000
     60       6.3019      0.00000
[...]
     86      11.2733      0.00000
     87      11.4453      0.00000
     88      11.5207      0.00000
     89      12.0269      0.00000
     90      12.2883      0.00000
     91      12.3977      0.00000
     92      12.6516      0.00000
     93      12.8711      0.00000
     94      13.2120      0.00000
     95      13.3736      0.00000
     96      13.4814      0.00000
     97      13.7671      0.00000
     98      13.7835      0.00000
     99      14.0221      0.00000
    100      14.2345      0.00000

[...]

 soft charge-density along one line, spin component           2
         0         1         2         3         4         5         6         7         8         9
 total charge-density along one line

------------------------ aborting loop because EDIFF is reached ----------------------------------------

[...]

  FORCE on cell =-STRESS in cart. coord.  units (eV):
  Direction    XX          YY          ZZ          XY          YZ          ZX
  Alpha Z   263.89081   263.89081   263.89081
  Ewald   -2861.19561 -1755.04926 -2949.43290     0.00000    40.03999    -0.00000
  Hartree  1271.01293  2270.44567  1344.40270    -0.00000    30.44026     0.00000
  E(xc)    -498.50581  -498.36103  -498.73429     0.00000     0.01291    -0.00000
  Local    -413.80709 -2504.26818  -394.72506    -0.00000   -70.15046    -0.00001
  n-local   487.25413   484.23670   479.80407    -0.05468     0.18607    -0.01605
  augment   564.12397   552.06781   557.38606     0.00000    -0.13095    -0.00000
  Kinetic  1626.30485  1621.31753  1634.06717    -0.24279    -0.47329    -0.02442
  Fock     -439.10231  -434.31175  -436.56706     0.00008     0.06037     0.00071
  Total      -0.02413    -0.03170     0.09150     0.00000    -0.01510     0.00000
  in kB      -0.12925    -0.16977     0.49004     0.00000    -0.08089     0.00000

 VOLUME and BASIS-vectors are now :
  energy-cutoff  :      520.00
  volume of cell :      299.17
      direct lattice vectors                 reciprocal lattice vectors
     6.424094539  0.000000000  0.000000000     0.155663961  0.000000000 -0.000000000
     0.000000000  6.050449090  0.191713346    -0.000000000  0.160998218  0.135037424
     0.000000000 -6.288642331  7.497626796     0.000000000 -0.004116704  0.129922648

  length of vectors
     6.424094539  6.053485623  9.785776921     0.155663961  0.210132178  0.129987852

 FORCES acting on ions:
    Electron-Ion                     Ewald-Force                    Non-Local-Force
   -.640E+02 0.128E+02 -.496E+02   0.633E+02 -.127E+02 0.490E+02   0.725E+00 -.139E+00 0.554E+00
   0.640E+02 0.128E+02 -.496E+02   -.633E+02 -.127E+02 0.490E+02   -.725E+00 -.139E+00 0.554E+00
   0.640E+02 0.981E+01 0.507E+02   -.633E+02 -.970E+01 -.501E+02   -.739E+00 -.104E+00 -.583E+00
   -.640E+02 0.981E+01 0.507E+02   0.633E+02 -.970E+01 -.501E+02   0.739E+00 -.104E+00 -.583E+00
   -.754E+02 0.127E+02 0.610E+00   0.736E+02 -.128E+02 -.606E+00   0.177E+01 0.917E-01 -.306E-02
   0.754E+02 0.127E+02 0.610E+00   -.736E+02 -.128E+02 -.606E+00   -.177E+01 0.917E-01 -.306E-02
   -.168E+02 0.151E+02 0.554E+00   0.161E+02 -.142E+02 -.505E+00   0.617E+00 -.861E+00 -.571E-01
   0.168E+02 0.151E+02 0.554E+00   -.161E+02 -.142E+02 -.505E+00   -.617E+00 -.861E+00 -.571E-01
   0.228E+03 0.566E+02 0.178E+01   -.234E+03 -.577E+02 -.176E+01   0.552E+01 0.940E+00 -.154E-01
   -.228E+03 0.566E+02 0.178E+01   0.234E+03 -.577E+02 -.176E+01   -.552E+01 0.940E+00 -.154E-01
   -.141E+03 -.125E+02 -.909E+01   0.142E+03 0.129E+02 0.853E+01   -.101E+01 -.311E+00 0.507E+00
   0.141E+03 -.125E+02 -.909E+01   -.142E+03 0.129E+02 0.853E+01   0.101E+01 -.311E+00 0.507E+00
   -.148E+03 -.517E+02 -.225E+01   0.149E+03 0.524E+02 0.228E+01   -.885E+00 -.635E+00 -.222E-01
   0.148E+03 -.517E+02 -.225E+01   -.149E+03 0.524E+02 0.228E+01   0.885E+00 -.635E+00 -.222E-01
   0.140E+03 -.135E+02 0.819E+01   -.141E+03 0.138E+02 -.762E+01   0.100E+01 -.285E+00 -.514E+00
   -.140E+03 -.135E+02 0.819E+01   0.141E+03 0.138E+02 -.762E+01   -.100E+01 -.285E+00 -.514E+00
   -.881E+02 -.307E+01 -.890E+00   0.876E+02 0.398E+01 0.915E+00   0.412E+00 -.812E+00 -.151E-01
   0.881E+02 -.307E+01 -.890E+00   -.876E+02 0.398E+01 0.915E+00   -.412E+00 -.812E+00 -.151E-01
   0.123E+03 -.217E+02 0.285E+00   -.124E+03 0.240E+02 -.180E+00   0.333E+00 -.206E+01 -.911E-01
   -.123E+03 -.217E+02 0.285E+00   0.124E+03 0.240E+02 -.180E+00   -.333E+00 -.206E+01 -.911E-01
   -.717E-04 0.899E+01 0.519E+00   -.426E-13 -.213E-13 0.539E-13   0.833E-15 -.836E+01 -.479E+00

 POSITION                                       TOTAL-FORCE (eV/Angst)
      5.18066     -3.43759      4.96813        -0.003001     -0.003942     -0.000776
      1.24344     -0.41236      5.06398         0.003001     -0.003942     -0.000776
      1.24830     -0.30639      1.72444        -0.000642     -0.007586     -0.003834
      5.17580      2.71884      1.82029         0.000642     -0.007586     -0.003834
      5.50533      0.75168      3.42680        -0.014698     -0.003262      0.002273
      0.91876     -2.27354      3.33094         0.014698     -0.003262      0.002273
      6.12580     -2.15338      7.19234        -0.004821      0.005646     -0.008834
      0.29829     -5.17861      7.09648         0.004821      0.005646     -0.008834
      2.10384     -0.69381      3.38373        -0.001862     -0.013368     -0.003427
      4.32026      2.33141      3.47959         0.001862     -0.013368     -0.003427
      5.20573     -0.96785      5.16805        -0.002701      0.009421     -0.004979
      1.21836     -3.99308      5.07219         0.002701      0.009421     -0.004979
      4.54100     -4.09936      7.12379         0.008063      0.003819     -0.001458
      1.88309     -1.07414      7.21965        -0.008063      0.003819     -0.001458
      1.21847      2.17011      1.67700         0.005038      0.008834      0.009494
      5.20562     -0.85512      1.58114        -0.005038      0.008834      0.009494
      4.09075     -0.37261      7.23730        -0.005904      0.003516      0.008747
      2.33335     -3.39784      7.14145         0.005904      0.003516      0.008747
      2.69355      1.24186      3.44442         0.010791     -0.003079      0.002795
      3.73054     -1.78337      3.34857        -0.010791     -0.003079      0.002795
    total drift:                               -0.000072     -0.017510      0.009634

  FREE ENERGIE OF THE ION-ELECTRON SYSTEM (eV)
  free  energy   TOTEN  =      -133.46867283 eV

  energy  without entropy=     -133.46867283  energy(sigma->0) =     -133.46867283

 d Force = 0.5849937E-03[ 0.350E-03, 0.820E-03]  d Energy = 0.6600369E-03-0.750E-04
 d Force =-0.1996726E+01[-0.200E+01,-0.199E+01]  d Ewald  =-0.3091883E+01 0.110E+01

 Conjugate gradient step on ions:
 trial-energy change:   -0.000660  1 .order   -0.000632   -0.000883   -0.000382
  (g-gl).g = 0.677E-03      g.g   = 0.711E-03  gl.gl    = 0.137E-02
 g(Force)  = 0.633E-03   g(Stress)= 0.780E-04 ortho     = 0.349E-04
 gamma     =   0.49352
 trial     =   1.21147
 opt step  =   2.13701  (harmonic =   2.13701) maximal distance =0.00400166
 next E    =  -133.468791   (d E  =  -0.00078)

 reached required accuracy - stopping structural energy minimisation
 writing wavefunctions

 total charge

[...]

 magnetization (x)

# of ion       s       p       d       tot
    1        0.001   0.002   0.000   0.003
    2        0.001   0.002   0.000   0.003
    3        0.001   0.002   0.000   0.003
    4        0.001   0.002   0.000   0.003
    5        0.001   0.002   0.000   0.002
    6        0.001   0.002   0.000   0.002
    7        0.001   0.003   0.000   0.004
    8        0.001   0.003   0.000   0.004
    9        0.006   0.105   0.000   0.112
   10        0.006   0.105   0.000   0.112
   11        0.009   0.060   0.000   0.069
   12        0.009   0.060   0.000   0.069
   13        0.007   0.064   0.000   0.071
   14        0.007   0.064   0.000   0.071
   15        0.009   0.059   0.000   0.069
   16        0.009   0.059   0.000   0.069
   17        0.026   0.044   3.487   3.557
   18        0.026   0.044   3.487   3.557
   19        0.033   0.037   3.536   3.605
   20        0.033   0.037   3.536   3.605
tot          0.185   0.756  14.046  14.987