 vasp.5.4.4.18Apr17-6-g9f103f2a35 (build Oct 25 2017 14:42:18) complex

 executed on             LinuxIFC date 2021.06.15  07:42:56

 INCAR:
 POTCAR:    PAW_PBE Li_sv 10Sep2004
 POTCAR:    PAW_PBE Fe_pv 02Aug2007
 POTCAR:    PAW_PBE S 06Sep2000
 POTCAR:    PAW_PBE O 08Apr2002

 POTCAR:    PAW_PBE Li_sv 10Sep2004

 POTCAR:    PAW_PBE Fe_pv 02Aug2007

 POTCAR:    PAW_PBE S 06Sep2000

 POTCAR:    PAW_PBE O 08Apr2002

  PAW_PBE Li_sv 10Sep2004               :
  PAW_PBE Fe_pv 02Aug2007               :
  PAW_PBE S 06Sep2000                   :
  PAW_PBE O 08Apr2002                   :

 POSCAR: # Compound: Li8Fe4S4O4. Old comment: FeL
  positions in direct lattice
 exchange correlation table for  LEXCH =        8
   RHO(1)=    0.500       N(1)  =     2000
   RHO(2)=  100.500       N(2)  =     4000

 ion  position               nearest neighbor table
   1  0.250  0.500  0.935-  17 1.96  19 1.96  14 2.46
   2  0.250  0.000  0.565-  18 1.96  20 1.96  13 2.46
   3  0.750  0.500  0.065-  17 1.96  19 1.96  16 2.46
   4  0.750  0.000  0.435-  18 1.96  20 1.96  15 2.46
   5  0.538  0.750  0.750-  19 2.01  20 2.01  15 2.56  16 2.56
   6  0.462  0.250  0.250-  19 2.01  20 2.01  13 2.56  14 2.56
   7  0.038  0.750  0.250-  17 2.01  18 2.01  13 2.56  14 2.56
   8  0.962  0.250  0.750-  17 2.01  18 2.01  15 2.56  16 2.56
   9  0.972  0.750  0.750-  17 2.00  18 2.00  15 2.62  16 2.62
  10  0.028  0.250  0.250-  17 2.00  18 2.00  13 2.62  14 2.62
  11  0.472  0.750  0.250-  19 2.00  20 2.00  13 2.62  14 2.62
  12  0.528  0.250  0.750-  19 2.00  20 2.00  15 2.62  16 2.62
  13  0.250  0.000  0.002-   2 2.46   6 2.56   7 2.56  10 2.62  11 2.62
  14  0.250  0.500  0.498-   1 2.46   6 2.56   7 2.56  10 2.62  11 2.62
  15  0.750  0.000  0.998-   4 2.46   5 2.56   8 2.56   9 2.62  12 2.62
  16  0.750  0.500  0.502-   3 2.46   5 2.56   8 2.56   9 2.62  12 2.62
  17  0.000  0.500  0.000-   1 1.96   3 1.96   9 2.00  10 2.00   7 2.01   8 2.01
  18  0.000  0.000  0.500-   2 1.96   4 1.96   9 2.00  10 2.00   7 2.01   8 2.01
  19  0.500  0.500  0.000-   1 1.96   3 1.96  11 2.00  12 2.00   5 2.01   6 2.01
  20  0.500  0.000  0.500-   2 1.96   4 1.96  11 2.00  12 2.00   5 2.01   6 2.01

IMPORTANT INFORMATION: All symmetrisations will be switched off!
NOSYMM: (Re-)initialisation of all symmetry stuff for point group C_1.

 KPOINTS: # No comment

Automatic generation of k-mesh.
Space group operators:
 irot       det(A)        alpha          n_x          n_y          n_z        tau_x        tau_y        tau_z
    1     1.000000     0.000000     1.000000     0.000000     0.000000     0.000000     0.000000     0.000000

 Subroutine IBZKPT returns following result:

 Found     51 irreducible k-points:

 Following reciprocal coordinates:
            Coordinates               Weight
  0.000000  0.000000  0.000000      1.000000
  0.250000  0.000000  0.000000      2.000000
  0.500000  0.000000  0.000000      1.000000
  0.000000  0.200000  0.000000      2.000000
  0.250000  0.200000  0.000000      2.000000
  0.500000  0.200000  0.000000      2.000000
 -0.250000  0.200000  0.000000      2.000000
  0.000000  0.400000  0.000000      2.000000
  0.250000  0.400000  0.000000      2.000000
  0.500000  0.400000  0.000000      2.000000
 -0.250000  0.400000  0.000000      2.000000
  0.000000  0.000000  0.200000      2.000000
  0.250000  0.000000  0.200000      2.000000
  0.500000  0.000000  0.200000      2.000000
 -0.250000  0.000000  0.200000      2.000000
  0.000000  0.200000  0.200000      2.000000
  0.250000  0.200000  0.200000      2.000000
  0.500000  0.200000  0.200000      2.000000
 -0.250000  0.200000  0.200000      2.000000
  0.000000  0.400000  0.200000      2.000000
  0.250000  0.400000  0.200000      2.000000
  0.500000  0.400000  0.200000      2.000000
 -0.250000  0.400000  0.200000      2.000000
  0.000000 -0.400000  0.200000      2.000000
  0.250000 -0.400000  0.200000      2.000000
  0.500000 -0.400000  0.200000      2.000000
 -0.250000 -0.400000  0.200000      2.000000
  0.000000 -0.200000  0.200000      2.000000
  0.250000 -0.200000  0.200000      2.000000
  0.500000 -0.200000  0.200000      2.000000
 -0.250000 -0.200000  0.200000      2.000000
  0.000000  0.000000  0.400000      2.000000
  0.250000  0.000000  0.400000      2.000000
  0.500000  0.000000  0.400000      2.000000
 -0.250000  0.000000  0.400000      2.000000
  0.000000  0.200000  0.400000      2.000000
  0.250000  0.200000  0.400000      2.000000
  0.500000  0.200000  0.400000      2.000000
 -0.250000  0.200000  0.400000      2.000000
  0.000000  0.400000  0.400000      2.000000
  0.250000  0.400000  0.400000      2.000000
  0.500000  0.400000  0.400000      2.000000
 -0.250000  0.400000  0.400000      2.000000
  0.000000 -0.400000  0.400000      2.000000
  0.250000 -0.400000  0.400000      2.000000
  0.500000 -0.400000  0.400000      2.000000
 -0.250000 -0.400000  0.400000      2.000000
  0.000000 -0.200000  0.400000      2.000000
  0.250000 -0.200000  0.400000      2.000000
  0.500000 -0.200000  0.400000      2.000000
 -0.250000 -0.200000  0.400000      2.000000

 Following cartesian coordinates:
            Coordinates               Weight
  0.000000  0.000000  0.000000      1.000000
  0.032415  0.000000  0.000000      2.000000
  0.064831  0.000000  0.000000      1.000000
  0.000000  0.035682  0.000000      2.000000
  0.032415  0.035682  0.000000      2.000000
  0.064831  0.035682  0.000000      2.000000
 -0.032415  0.035682  0.000000      2.000000
  0.000000  0.071363  0.000000      2.000000
  0.032415  0.071363  0.000000      2.000000
  0.064831  0.071363  0.000000      2.000000
 -0.032415  0.071363  0.000000      2.000000
  0.000000  0.000000  0.035470      2.000000
  0.032415  0.000000  0.035470      2.000000
  0.064831  0.000000  0.035470      2.000000
 -0.032415  0.000000  0.035470      2.000000
  0.000000  0.035682  0.035470      2.000000
  0.032415  0.035682  0.035470      2.000000
  0.064831  0.035682  0.035470      2.000000
 -0.032415  0.035682  0.035470      2.000000
  0.000000  0.071363  0.035470      2.000000
  0.032415  0.071363  0.035470      2.000000
  0.064831  0.071363  0.035470      2.000000
 -0.032415  0.071363  0.035470      2.000000
  0.000000 -0.071363  0.035470      2.000000
  0.032415 -0.071363  0.035470      2.000000
  0.064831 -0.071363  0.035470      2.000000
 -0.032415 -0.071363  0.035470      2.000000
  0.000000 -0.035682  0.035470      2.000000
  0.032415 -0.035682  0.035470      2.000000
  0.064831 -0.035682  0.035470      2.000000
 -0.032415 -0.035682  0.035470      2.000000
  0.000000  0.000000  0.070941      2.000000
  0.032415  0.000000  0.070941      2.000000
  0.064831  0.000000  0.070941      2.000000
 -0.032415  0.000000  0.070941      2.000000
  0.000000  0.035682  0.070941      2.000000
  0.032415  0.035682  0.070941      2.000000
  0.064831  0.035682  0.070941      2.000000
 -0.032415  0.035682  0.070941      2.000000
  0.000000  0.071363  0.070941      2.000000
  0.032415  0.071363  0.070941      2.000000
  0.064831  0.071363  0.070941      2.000000
 -0.032415  0.071363  0.070941      2.000000
  0.000000 -0.071363  0.070941      2.000000
  0.032415 -0.071363  0.070941      2.000000
  0.064831 -0.071363  0.070941      2.000000
 -0.032415 -0.071363  0.070941      2.000000
  0.000000 -0.035682  0.070941      2.000000
  0.032415 -0.035682  0.070941      2.000000
  0.064831 -0.035682  0.070941      2.000000
 -0.032415 -0.035682  0.070941      2.000000

 Subroutine IBZKPT_HF returns following result:

 Found    100 k-points in 1st BZ
 the following    100 k-points will be used (e.g. in the exchange kernel)
 Following reciprocal coordinates:   # in IRBZ
  0.000000  0.000000  0.000000    0.01000000   1 t-inv F
  0.250000  0.000000  0.000000    0.01000000   2 t-inv F
  0.500000  0.000000  0.000000    0.01000000   3 t-inv F
  0.000000  0.200000  0.000000    0.01000000   4 t-inv F
  0.250000  0.200000  0.000000    0.01000000   5 t-inv F
  0.500000  0.200000  0.000000    0.01000000   6 t-inv F
 -0.250000  0.200000  0.000000    0.01000000   7 t-inv F
  0.000000  0.400000  0.000000    0.01000000   8 t-inv F
  0.250000  0.400000  0.000000    0.01000000   9 t-inv F
  0.500000  0.400000  0.000000    0.01000000  10 t-inv F
 -0.250000  0.400000  0.000000    0.01000000  11 t-inv F
  0.000000  0.000000  0.200000    0.01000000  12 t-inv F
  0.250000  0.000000  0.200000    0.01000000  13 t-inv F
  0.500000  0.000000  0.200000    0.01000000  14 t-inv F
 -0.250000  0.000000  0.200000    0.01000000  15 t-inv F
  0.000000  0.200000  0.200000    0.01000000  16 t-inv F
  0.250000  0.200000  0.200000    0.01000000  17 t-inv F
  0.500000  0.200000  0.200000    0.01000000  18 t-inv F
 -0.250000  0.200000  0.200000    0.01000000  19 t-inv F
  0.000000  0.400000  0.200000    0.01000000  20 t-inv F
  0.250000  0.400000  0.200000    0.01000000  21 t-inv F
  0.500000  0.400000  0.200000    0.01000000  22 t-inv F
 -0.250000  0.400000  0.200000    0.01000000  23 t-inv F
  0.000000 -0.400000  0.200000    0.01000000  24 t-inv F
  0.250000 -0.400000  0.200000    0.01000000  25 t-inv F
  0.500000 -0.400000  0.200000    0.01000000  26 t-inv F
 -0.250000 -0.400000  0.200000    0.01000000  27 t-inv F
  0.000000 -0.200000  0.200000    0.01000000  28 t-inv F
  0.250000 -0.200000  0.200000    0.01000000  29 t-inv F
  0.500000 -0.200000  0.200000    0.01000000  30 t-inv F
 -0.250000 -0.200000  0.200000    0.01000000  31 t-inv F
  0.000000  0.000000  0.400000    0.01000000  32 t-inv F
  0.250000  0.000000  0.400000    0.01000000  33 t-inv F
  0.500000  0.000000  0.400000    0.01000000  34 t-inv F
 -0.250000  0.000000  0.400000    0.01000000  35 t-inv F
  0.000000  0.200000  0.400000    0.01000000  36 t-inv F
  0.250000  0.200000  0.400000    0.01000000  37 t-inv F
  0.500000  0.200000  0.400000    0.01000000  38 t-inv F
 -0.250000  0.200000  0.400000    0.01000000  39 t-inv F
  0.000000  0.400000  0.400000    0.01000000  40 t-inv F
  0.250000  0.400000  0.400000    0.01000000  41 t-inv F
  0.500000  0.400000  0.400000    0.01000000  42 t-inv F
 -0.250000  0.400000  0.400000    0.01000000  43 t-inv F
  0.000000 -0.400000  0.400000    0.01000000  44 t-inv F
  0.250000 -0.400000  0.400000    0.01000000  45 t-inv F
  0.500000 -0.400000  0.400000    0.01000000  46 t-inv F
 -0.250000 -0.400000  0.400000    0.01000000  47 t-inv F
  0.000000 -0.200000  0.400000    0.01000000  48 t-inv F
  0.250000 -0.200000  0.400000    0.01000000  49 t-inv F
  0.500000 -0.200000  0.400000    0.01000000  50 t-inv F
 -0.250000 -0.200000  0.400000    0.01000000  51 t-inv F
 -0.250000  0.000000  0.000000    0.01000000   2 t-inv T
  0.000000 -0.200000  0.000000    0.01000000   4 t-inv T
 -0.250000 -0.200000  0.000000    0.01000000   5 t-inv T
 -0.500000 -0.200000  0.000000    0.01000000   6 t-inv T
  0.250000 -0.200000  0.000000    0.01000000   7 t-inv T
  0.000000 -0.400000  0.000000    0.01000000   8 t-inv T
 -0.250000 -0.400000  0.000000    0.01000000   9 t-inv T
 -0.500000 -0.400000  0.000000    0.01000000  10 t-inv T
  0.250000 -0.400000  0.000000    0.01000000  11 t-inv T
[...]
 -0.250000 -0.200000 -0.400000    0.01000000  37 t-inv T
[...]
     7.712411010  0.000000000  0.000000000     0.129661140  0.000000000  0.000000000
     0.000000000  5.605121210  0.000000000     0.000000000  0.178408274  0.000000000
     0.000000000  0.000000000  5.638513490     0.000000000  0.000000000  0.177351708

  length of vectors
     7.712411010  5.605121210  5.638513490     0.129661140  0.178408274  0.177351708

 FORCES acting on ions
    electron-ion (+dipol)            ewald-force                    non-local-force                 convergence-correction
   0.406E-06 -.140E-07 0.187E+02   0.178E-13 0.445E-15 -.190E+02   -.118E-05 0.287E-06 0.246E+00   -.672E-07 -.592E-08 -.296E-06
   -.368E-06 -.186E-07 -.187E+02   0.639E-13 -.684E-14 0.190E+02   0.119E-05 -.258E-06 -.246E+00   0.282E-07 0.117E-07 0.310E-06
   -.406E-06 0.617E-09 -.187E+02   0.888E-14 0.429E-14 0.190E+02   0.118E-05 -.287E-06 -.246E+00   0.645E-07 0.196E-07 0.276E-06
   0.369E-06 0.328E-07 0.187E+02   0.497E-13 -.713E-14 -.190E+02   -.118E-05 0.259E-06 0.246E+00   -.345E-07 -.259E-07 -.318E-06
   -.287E+01 0.734E-08 -.194E-05   0.316E+01 -.142E-13 0.000E+00   -.292E+00 0.373E-07 -.441E-06   -.257E-05 -.404E-08 -.669E-08
   0.287E+01 -.603E-08 0.195E-05   -.316E+01 -.142E-13 -.142E-13   0.292E+00 -.362E-07 0.446E-06   0.257E-05 0.224E-08 0.300E-08
   -.287E+01 0.515E-07 -.188E-05   0.316E+01 0.133E-14 0.151E-13   -.292E+00 -.239E-07 -.445E-06   -.257E-05 -.713E-07 -.534E-07
   0.287E+01 -.490E-07 0.189E-05   -.316E+01 -.444E-15 0.577E-14   0.292E+00 0.231E-07 0.439E-06   0.259E-05 0.711E-07 0.513E-07
   0.107E+02 0.193E-06 0.372E-06   -.122E+02 0.000E+00 -.355E-14   0.155E+01 0.223E-06 0.441E-06   0.892E-05 -.399E-06 0.293E-06
   -.107E+02 -.182E-06 -.346E-06   0.122E+02 -.284E-13 0.533E-14   -.155E+01 -.206E-06 -.433E-06   -.885E-05 0.390E-06 -.307E-06
   0.107E+02 -.229E-07 0.697E-06   -.122E+02 -.568E-13 -.284E-13   0.155E+01 -.307E-07 0.379E-06   0.919E-05 0.466E-07 0.400E-07
   -.107E+02 -.265E-07 -.663E-06   0.122E+02 -.284E-13 0.000E+00   -.155E+01 -.316E-07 -.349E-06   -.918E-05 0.330E-07 -.797E-07
   -.395E-07 -.241E-07 0.376E+02   -.497E-13 0.174E-14 -.382E+02   0.677E-07 0.137E-06 0.632E+00   -.428E-08 -.495E-08 -.292E-05
   0.270E-07 -.438E-07 -.376E+02   -.568E-13 0.880E-14 0.382E+02   -.228E-07 0.867E-07 -.632E+00   -.178E-07 -.132E-07 0.291E-05
   -.330E-09 0.631E-07 -.376E+02   -.782E-13 0.304E-13 0.382E+02   -.432E-07 -.139E-06 -.632E+00   0.185E-07 -.293E-07 0.293E-05
   -.537E-07 0.964E-08 0.376E+02   -.497E-13 -.262E-13 -.382E+02   0.383E-07 -.868E-07 0.632E+00   0.289E-07 0.437E-07 -.292E-05
   -.218E-08 -.540E-07 0.563E-08   -.716E-14 0.837E-13 0.592E-13   0.330E-08 -.152E-07 -.415E-09   -.625E-08 0.602E-07 -.737E-08
   0.114E-08 0.324E-07 -.356E-08   -.142E-13 -.508E-13 -.544E-13   0.621E-08 0.514E-08 -.470E-08   -.101E-07 -.320E-07 0.793E-08
   0.270E-08 -.114E-07 -.253E-07   -.711E-14 0.821E-13 -.558E-13   -.163E-08 -.730E-08 -.772E-09   0.409E-08 0.190E-07 0.224E-07
   0.510E-08 0.154E-07 0.295E-07   -.707E-14 -.291E-13 0.554E-13   -.621E-08 0.112E-07 0.224E-09   0.770E-08 -.264E-07 -.286E-07
   -.952E-07 -.466E-07 0.718E-07   -.462E-13 -.498E-13 0.116E-13   -.215E-07 -.528E-07 0.876E-07   0.115E-06 0.853E-07 -.910E-07

 POSITION                                       TOTAL-FORCE (eV/Angst)
      1.92810      2.80256      5.27212        -0.000001      0.000000     -0.000084
      1.92810      0.00000      3.18565         0.000001     -0.000000      0.000084
      5.78431      2.80256      0.36639         0.000001     -0.000000      0.000084
      5.78431      0.00000      2.45287        -0.000001      0.000000     -0.000084
      4.15299      4.20384      4.22889        -0.000081      0.000000     -0.000002
      3.55942      1.40128      1.40963         0.000081     -0.000000      0.000002
      0.29678      4.20384      1.40963        -0.000081     -0.000000     -0.000002
      7.41563      1.40128      4.22889         0.000081      0.000000      0.000002
      7.49749      4.20384      4.22889        -0.000021      0.000000      0.000001
      0.21492      1.40128      1.40963         0.000021      0.000000     -0.000001
      3.64128      4.20384      1.40963        -0.000021     -0.000000      0.000001
      4.07113      1.40128      4.22889         0.000021     -0.000000     -0.000001
      1.92810      0.00000      0.01196         0.000000      0.000000      0.000013
      1.92810      2.80256      2.80730        -0.000000      0.000000     -0.000013
      5.78431      0.00000      5.62655        -0.000000     -0.000000     -0.000013
      5.78431      2.80256      2.83122         0.000000     -0.000000      0.000013
      0.00000      2.80256      0.00000        -0.000000     -0.000000     -0.000000
      0.00000      0.00000      2.81926        -0.000000      0.000000     -0.000000
      3.85621      2.80256      0.00000         0.000000      0.000000     -0.000000
      3.85621      0.00000      2.81926         0.000000      0.000000     -0.000000
    total drift:                               -0.000000     -0.000000      0.000000

  FREE ENERGIE OF THE ION-ELECTRON SYSTEM (eV)
  free  energy   TOTEN  =      -102.73857405 eV

  energy  without entropy=     -102.73857405  energy(sigma->0) =     -102.73857405

 Linear response reoptimize wavefunctions
 Linear response G [H, r] |phi>, progress :
  Direction:   1

----------------------------------------- Iteration    1(   1)  ---------------------------------------

  free energy    TOTEN  =      -369.90124384 eV

[...]

 Linear response G [H, r] |phi>, progress :
  Direction:   2

[...]

 Linear response G [H, r] |phi>, progress :
  Direction:   3

[...]

  free energy    TOTEN  =      -525.65714099 eV

[...]

 Linear response to external field (no local field effect), progress :
  Direction:   1

[...]

 Free energy of the ion-electron system (eV)
  -Hartree energ DENC   =         0.00000000
  -V(xc)+E(xc)   XCENC  =         0.00000000
  PAW double counting   =         0.00000000        0.00000000
  entropy T*S    EENTRO =         0.00000000
  eigenvalues    EBANDS =        -2.12288110
  free energy    TOTEN  =        -2.12288110 eV

  energy without entropy =       -2.12288110

[...]

 change of polarisation eV/A/(eV/A) component  1 :     6.640    -0.000     0.000
 dielectric tensor                  component  1 :     5.930    -0.000     0.000

[...]

 Linear response to external field (no local field effect), progress :
  Direction:   3

[...]

 HEAD OF MICROSCOPIC STATIC DIELECTRIC TENSOR (INDEPENDENT PARTICLE, excluding Hartree and local field effects)
           5.929638    -0.000001     0.000000
          -0.000001     5.709360     0.000001
           0.000000     0.000001     5.659881

 Linear response to external field, progress :
  Direction:   1

[...]

 PIEZOELECTRIC TENSOR FIELD DIRECTION 1  (e Angst)
    -0.00010  0.00001 -0.00157           (  0.00000  0.00000  0.00001)
    -0.00000  0.00002 -0.00001           (  0.00000 -0.00000 -0.00000)
    -0.00158 -0.00001  0.00001           (  0.00001 -0.00000 -0.00000)

 PIEZOELECTRIC TENSOR FIELD DIRECTION 1  (C/m^2)
    -0.00001  0.00000 -0.00010
    -0.00000  0.00000 -0.00000
    -0.00010 -0.00000  0.00000

      POSITION         DIRECTION 1           BORN EFFECTIVE CHARGE    (rigid.aug.   ionic)
      1.92810      2.80256      5.27212     0.94292 -0.05015  0.00001 ( -0.94534  3.00000)
      1.92810      0.00000      3.18565     0.94292  0.05021 -0.00001 ( -0.94534  3.00000)
      5.78431      2.80256      0.36639     0.94292 -0.05021 -0.00001 ( -0.94534  3.00000)
      5.78431      0.00000      2.45287     0.94292  0.05015  0.00001 ( -0.94534  3.00000)
      4.15299      4.20384      4.22889     1.26251 -0.00004 -0.00001 ( -0.95475  3.00000)
      3.55942      1.40128      1.40963     1.26255  0.00004  0.00001 ( -0.95475  3.00000)
      0.29678      4.20384      1.40963     1.26251  0.00004 -0.00001 ( -0.95475  3.00000)
      7.41563      1.40128      4.22889     1.26255 -0.00005  0.00000 ( -0.95475  3.00000)
      7.49749      4.20384      4.22889     2.21022  0.00004 -0.00003 ( -8.50040 14.00000)
      0.21492      1.40128      1.40963     2.21020 -0.00004  0.00003 ( -8.50040 14.00000)
      3.64128      4.20384      1.40963     2.21022 -0.00004  0.00001 ( -8.50040 14.00000)
      4.07113      1.40128      4.22889     2.21020  0.00003 -0.00000 ( -8.50040 14.00000)
      1.92810      0.00000      0.01196    -2.42925  0.02516  0.00000 (  0.81611  6.00000)
      1.92810      2.80256      2.80730    -2.42928 -0.02529 -0.00000 (  0.81611  6.00000)
      5.78431      0.00000      5.62655    -2.42928  0.02529 -0.00000 (  0.81611  6.00000)
      5.78431      2.80256      2.83122    -2.42924 -0.02516  0.00000 (  0.81611  6.00000)
      0.00000      2.80256      0.00000    -1.98847  0.12720 -0.04987 ( -0.64058  6.00000)
      0.00000      0.00000      2.81926    -1.98847 -0.12720  0.04987 ( -0.64058  6.00000)
      3.85621      2.80256      0.00000    -1.98847  0.12720  0.04987 ( -0.64058  6.00000)
      3.85621      0.00000      2.81926    -1.98847 -0.12720 -0.04987 ( -0.64058  6.00000)
    total drift (improves with k-points):  -0.00829 -0.00000  0.00000

[...]

 Linear response to external field, progress :
  Direction:   3

[...]

----------------------------------------- Iteration    3(  24)  ---------------------------------------

 Broyden mixing:
  rms(total) = 0.81529E-06    rms(broyden)= 0.81239E-06
  rms(prec ) = 0.96714E-06
  weight for this iteration     100.00

 eigenvalues of (default mixing * dielectric matrix)
  average eigenvalue GAMMA=   2.4209
 15.2050 12.4897  3.0669  2.6176  2.6176  2.1795  2.1795  1.6779  1.4457  1.0534
  1.0534  0.9626  0.8846  0.7897  0.7178  0.7178  0.6676  0.6676  0.6152  0.6219
  0.6219  0.4075

 Free energy of the ion-electron system (eV)
  -Hartree energ DENC   =        -0.36032820
  -V(xc)+E(xc)   XCENC  =         0.01973504
  PAW double counting   =         1.51696072       -1.48742194
  entropy T*S    EENTRO =         0.00000000
  eigenvalues    EBANDS =        -2.91309962
  free energy    TOTEN  =        -3.22415399 eV

  energy without entropy =       -3.22415399

------------------------ aborting loop because EDIFF is reached ----------------------------------------

 change of polarisation eV/A/(eV/A) component  3 :     0.000     0.000     5.903
 dielectric tensor                  component  3 :     0.000     0.000     5.382

 PIEZOELECTRIC TENSOR FIELD DIRECTION 3  (e Angst)
    -0.00074 -0.00000  0.00004           ( -0.00001 -0.00000 -0.00000)
    -0.00002 -0.00021 -0.00067           ( -0.00000  0.00001  0.00002)
     0.00003 -0.00067  0.00321           ( -0.00000  0.00002 -0.00005)

 PIEZOELECTRIC TENSOR FIELD DIRECTION 3  (C/m^2)
    -0.00005 -0.00000  0.00000
    -0.00000 -0.00001 -0.00004
     0.00000 -0.00004  0.00021

      POSITION         DIRECTION 3           BORN EFFECTIVE CHARGE    (rigid.aug.   ionic)
      1.92810      2.80256      5.27212    -0.00000 -0.00001  1.19472 ( -0.94534  3.00000)
      1.92810      0.00000      3.18565    -0.00000  0.00001  1.19490 ( -0.94534  3.00000)
      5.78431      2.80256      0.36639     0.00001  0.00001  1.19490 ( -0.94534  3.00000)
      5.78431      0.00000      2.45287     0.00000 -0.00001  1.19472 ( -0.94534  3.00000)
      4.15299      4.20384      4.22889    -0.00002  0.17202  1.15126 ( -0.95475  3.00000)
      3.55942      1.40128      1.40963     0.00002  0.17202  1.15127 ( -0.95475  3.00000)
      0.29678      4.20384      1.40963    -0.00001 -0.17202  1.15127 ( -0.95475  3.00000)
      7.41563      1.40128      4.22889     0.00001 -0.17202  1.15127 ( -0.95475  3.00000)
      7.49749      4.20384      4.22889     0.00005 -0.28562  2.49617 ( -8.50040 14.00000)
      0.21492      1.40128      1.40963    -0.00005 -0.28562  2.49617 ( -8.50040 14.00000)
      3.64128      4.20384      1.40963     0.00003  0.28562  2.49617 ( -8.50040 14.00000)
      4.07113      1.40128      4.22889    -0.00003  0.28562  2.49617 ( -8.50040 14.00000)
      1.92810      0.00000      0.01196    -0.00001 -0.00001 -2.09505 (  0.81611  6.00000)
      1.92810      2.80256      2.80730    -0.00000  0.00001 -2.09494 (  0.81611  6.00000)
      5.78431      0.00000      5.62655     0.00001  0.00001 -2.09494 (  0.81611  6.00000)
      5.78431      2.80256      2.83122     0.00000 -0.00001 -2.09505 (  0.81611  6.00000)
      0.00000      2.80256      0.00000    -0.21575  0.82095 -2.74709 ( -0.64058  6.00000)
      0.00000      0.00000      2.81926     0.21575  0.82095 -2.74709 ( -0.64058  6.00000)
      3.85621      2.80256      0.00000     0.21575 -0.82095 -2.74709 ( -0.64058  6.00000)
      3.85621      0.00000      2.81926    -0.21575 -0.82095 -2.74709 ( -0.64058  6.00000)
    total drift (improves with k-points):  -0.00000  0.00000  0.00063

 MACROSCOPIC STATIC DIELECTRIC TENSOR (including local field effects in DFT)
           5.703061    -0.000002     0.000000
          -0.000001     5.449942     0.000001
          -0.000000     0.000000     5.382361

 MACROSCOPIC STATIC DIELECTRIC TENSOR (including local field effects in DFT)
           5.703061    -0.000002     0.000000
          -0.000001     5.449942     0.000001
          -0.000000     0.000000     5.382361

 PIEZOELECTRIC TENSOR  for field in x, y, z        (e  Angst)
          XX          YY          ZZ          XY          YZ          ZX
  x    -0.00010     0.00002     0.00001    -0.00000    -0.00001    -0.00157
  y     0.00039     0.00040    -0.00030     0.00002     0.00006     0.00002
  z    -0.00074    -0.00021     0.00321    -0.00002    -0.00067     0.00004

 PIEZOELECTRIC TENSOR  for field in x, y, z        (C/m^2)
          XX          YY          ZZ          XY          YZ          ZX
  x    -0.00001     0.00000     0.00000    -0.00000    -0.00000    -0.00010
  y     0.00003     0.00003    -0.00002     0.00000     0.00000     0.00000
  z    -0.00005    -0.00001     0.00021    -0.00000    -0.00004     0.00000

 BORN EFFECTIVE CHARGES (in e, cummulative output)
 ion    1
    1     0.94334    -0.05015     0.00001
    2    -0.02851     1.26032    -0.00001
    3    -0.00000    -0.00001     1.19468
 ion    2
    1     0.94333     0.05021    -0.00001
    2     0.02853     1.26029     0.00001
    3    -0.00000     0.00001     1.19486
 ion    3
    1     0.94333    -0.05021    -0.00001
    2    -0.02853     1.26029     0.00001
    3     0.00001     0.00001     1.19486
 ion    4
    1     0.94334     0.05015     0.00001
    2     0.02851     1.26031    -0.00001
    3     0.00000    -0.00001     1.19468
 ion    5
    1     1.26292    -0.00004    -0.00001
    2    -0.00001     1.15405     0.18140
    3    -0.00002     0.17202     1.15123
 ion    6
    1     1.26297     0.00004     0.00001
    2     0.00000     1.15405     0.18140
    3     0.00002     0.17202     1.15123
 ion    7
    1     1.26292     0.00004    -0.00001
    2    -0.00002     1.15405    -0.18140
    3    -0.00001    -0.17202     1.15124
 ion    8
    1     1.26297    -0.00005     0.00000
    2     0.00002     1.15406    -0.18140
    3     0.00001    -0.17202     1.15124
 ion    9
    1     2.21063     0.00004    -0.00003
    2     0.00004     2.48156    -0.27309
    3     0.00005    -0.28562     2.49614
 ion   10
    1     2.21061    -0.00004     0.00003
    2    -0.00004     2.48156    -0.27309
    3    -0.00005    -0.28562     2.49613
 ion   11
    1     2.21063    -0.00004     0.00001
    2     0.00001     2.48155     0.27309
    3     0.00003     0.28562     2.49613
 ion   12
    1     2.21061     0.00003    -0.00000
    2    -0.00001     2.48156     0.27309
    3    -0.00003     0.28562     2.49613
 ion   13
    1    -2.42883     0.02516     0.00000
    2     0.03555    -2.10302    -0.00002
    3    -0.00001    -0.00001    -2.09508
 ion   14
    1    -2.42887    -0.02529    -0.00000
    2    -0.03554    -2.10310     0.00001
    3    -0.00000     0.00001    -2.09497
 ion   15
    1    -2.42887     0.02529    -0.00000
    2     0.03554    -2.10310     0.00002
    3     0.00001     0.00001    -2.09497
 ion   16
    1    -2.42883    -0.02516     0.00000
    2    -0.03555    -2.10302    -0.00001
    3     0.00000    -0.00001    -2.09508
 ion   17
    1    -1.98805     0.12720    -0.04987
    2     0.09868    -2.79285     0.83574
    3    -0.21575     0.82095    -2.74712
 ion   18
    1    -1.98806    -0.12720     0.04987
    2    -0.09868    -2.79285     0.83574
    3     0.21575     0.82095    -2.74712
 ion   19
    1    -1.98805     0.12720     0.04987
    2     0.09869    -2.79286    -0.83574
    3     0.21575    -0.82095    -2.74712
 ion   20
    1    -1.98805    -0.12720    -0.04987
    2    -0.09868    -2.79286    -0.83574
    3    -0.21575    -0.82095    -2.74712