 vasp.5.4.4.18Apr17-6-g9f103f2a35 (build Oct 25 2017 14:42:18) complex

 executed on             LinuxIFC date 2021.04.18  02:02:59

 INCAR:
 POTCAR:    PAW_PBE Li_sv 10Sep2004
 POTCAR:    PAW_PBE Fe_pv 02Aug2007
 POTCAR:    PAW_PBE S 06Sep2000
 POTCAR:    PAW_PBE O 08Apr2002

 POTCAR:    PAW_PBE Li_sv 10Sep2004

 POTCAR:    PAW_PBE Fe_pv 02Aug2007

 POTCAR:    PAW_PBE S 06Sep2000

 POTCAR:    PAW_PBE O 08Apr2002

  PAW_PBE Li_sv 10Sep2004               :
  PAW_PBE Fe_pv 02Aug2007               :
  PAW_PBE S 06Sep2000                   :
  PAW_PBE O 08Apr2002                   :

 POSCAR: # Compound: Li48Fe36S36O24. Old comment:
  positions in direct lattice
 exchange correlation table for  LEXCH =        8
   RHO(1)=    0.500       N(1)  =     2000
   RHO(2)=  100.500       N(2)  =     4000

 ion  position               nearest neighbor table
   1  0.475  0.002  0.004- 134 1.97 131 2.03  91 2.54  95 2.55
   2  0.975  0.001  0.004- 133 1.97 132 2.03  92 2.54  96 2.54
   3  0.475  0.334  0.004- 136 1.97 127 2.03  93 2.54  91 2.54
   4  0.975  0.334  0.004- 135 1.97 128 2.03  94 2.54  92 2.54
   5  0.475  0.667  0.004- 138 1.97 129 2.03  95 2.54  93 2.54
   6  0.975  0.667  0.004- 137 1.97 130 2.03  96 2.54  94 2.54
   7  0.275  0.333  0.996- 121 1.97 141 2.03  91 2.54  93 2.54
   8  0.775  0.333  0.996- 122 1.97 142 2.03  92 2.54  94 2.54
   9  0.275  0.666  0.996- 123 1.97 143 2.03  93 2.54  95 2.54
  10  0.775  0.666  0.996- 124 1.97 144 2.03  94 2.54  96 2.54
  11  0.275  0.999  0.996- 125 1.97 139 2.03  95 2.54  91 2.54
  12  0.775  0.999  0.996- 126 1.97 140 2.03  96 2.54  92 2.54
  13  0.178  0.268  0.608- 121 2.04  97 2.47 111 2.63 109 2.63
  14  0.678  0.268  0.608- 122 2.04  98 2.47 112 2.63 110 2.63
  15  0.178  0.601  0.608- 123 2.04  99 2.47 113 2.63 111 2.63
  16  0.678  0.601  0.608- 124 2.04 100 2.47 114 2.63 112 2.63
  17  0.178  0.935  0.608- 125 2.04 101 2.47 109 2.63 113 2.63
  18  0.678  0.935  0.608- 126 2.04 102 2.47 110 2.63 114 2.63
  19  0.072  0.065  0.392- 133 2.04 109 2.47 101 2.63  97 2.63
  20  0.572  0.065  0.392- 134 2.04 110 2.47 102 2.63  98 2.63
  21  0.072  0.399  0.392- 135 2.04 111 2.47  97 2.63  99 2.63
  22  0.572  0.399  0.392- 136 2.04 112 2.47  98 2.63 100 2.63
  23  0.072  0.732  0.392- 137 2.04 113 2.47  99 2.63 101 2.63
  24  0.572  0.732  0.392- 138 2.04 114 2.47 100 2.63 102 2.63
  25  0.107  0.308  0.846- 121 1.95 128 1.99  85 2.56  87 2.56
  26  0.607  0.308  0.846- 122 1.95 127 1.99  86 2.56  88 2.56
  27  0.107  0.641  0.846- 123 1.95 130 1.99  87 2.56  89 2.56
  28  0.607  0.641  0.846- 124 1.95 129 1.99  88 2.56  90 2.56
  29  0.107  0.974  0.846- 125 1.95 132 1.99  89 2.56  85 2.56
  30  0.607  0.974  0.846- 126 1.95 131 1.99  90 2.56  86 2.56
  31  0.345  0.295  0.772- 121 1.94 127 2.00 117 2.48 115 2.48
  32  0.845  0.295  0.772- 122 1.94 128 2.00 118 2.48 116 2.48
  33  0.345  0.629  0.772- 123 1.94 129 2.00 119 2.48 117 2.48
  34  0.845  0.629  0.772- 124 1.94 130 2.00 120 2.48 118 2.48
  35  0.345  0.962  0.772- 125 1.94 131 2.00 115 2.48 119 2.48
  36  0.845  0.962  0.772- 126 1.94 132 2.00 116 2.48 120 2.48
  37  0.143  0.026  0.154- 133 1.95 139 1.99  85 2.56  89 2.56
  38  0.643  0.026  0.154- 134 1.95 140 1.99  86 2.56  90 2.56
  39  0.143  0.359  0.154- 135 1.95 141 1.99  87 2.56  85 2.56
  40  0.643  0.359  0.154- 136 1.95 142 1.99  88 2.56  86 2.56
  41  0.143  0.692  0.154- 137 1.95 143 1.99  89 2.56  87 2.56
  42  0.643  0.692  0.154- 138 1.95 144 1.99  90 2.56  88 2.56
  43  0.405  0.038  0.228- 134 1.94 139 2.00 107 2.48 103 2.48
  44  0.905  0.038  0.228- 133 1.94 140 2.00 108 2.48 104 2.48
  45  0.405  0.371  0.228- 136 1.94 141 2.00 103 2.48 105 2.48
  46  0.905  0.371  0.228- 135 1.94 142 2.00 104 2.48 106 2.48
  47  0.405  0.705  0.228- 138 1.94 143 2.00 105 2.48 107 2.48
  48  0.905  0.705  0.228- 137 1.94 144 2.00 106 2.48 108 2.48
  49  0.465  0.267  0.601- 127 2.12 103 2.40 110 2.61 112 2.61
  50  0.965  0.267  0.601- 128 2.12 104 2.40 109 2.61 111 2.61
  51  0.465  0.600  0.601- 129 2.12 105 2.40 112 2.61 114 2.61
  52  0.965  0.600  0.601- 130 2.12 106 2.40 111 2.61 113 2.61
  53  0.465  0.934  0.601- 131 2.12 107 2.40 114 2.61 110 2.61
  54  0.965  0.934  0.601- 132 2.12 108 2.40 113 2.61 109 2.61
  55  0.285  0.066  0.399- 139 2.12 115 2.40  97 2.61 101 2.61
  56  0.785  0.066  0.399- 140 2.12 116 2.40  98 2.61 102 2.61
  57  0.285  0.400  0.399- 141 2.12 117 2.40  99 2.61  97 2.61
  58  0.785  0.400  0.399- 142 2.12 118 2.40 100 2.61  98 2.61
  59  0.285  0.733  0.399- 143 2.12 119 2.40 101 2.61  99 2.61
  60  0.785  0.733  0.399- 144 2.12 120 2.40 102 2.61 100 2.61
[...]
  71  0.478  0.802  0.815- 131 2.03 129 2.03 114 2.62 119 2.63  90 2.68  95 2.71
  72  0.978  0.802  0.815- 132 2.03 130 2.03 113 2.62 120 2.63  89 2.68  96 2.71
  73  0.026  0.200  0.199- 135 2.02 133 2.02  97 2.64 104 2.66  85 2.79
  74  0.526  0.200  0.199- 136 2.02 134 2.02  98 2.64 103 2.66  86 2.79
  75  0.026  0.533  0.199- 137 2.02 135 2.02  99 2.64 106 2.66  87 2.79
  76  0.526  0.533  0.199- 138 2.02 136 2.02 100 2.64 105 2.66  88 2.79
  77  0.026  0.866  0.199- 133 2.02 137 2.02 101 2.64 108 2.66  89 2.79
  78  0.526  0.866  0.199- 134 2.02 138 2.02 102 2.64 107 2.66  90 2.79
  79  0.272  0.198  0.185- 139 2.03 141 2.03  97 2.62 103 2.63  85 2.68  91 2.71
  80  0.772  0.198  0.185- 140 2.03 142 2.03  98 2.62 104 2.63  86 2.68  92 2.71
  81  0.272  0.531  0.185- 143 2.03 141 2.03  99 2.62 105 2.63  87 2.68  93 2.71
  82  0.772  0.531  0.185- 144 2.03 142 2.03 100 2.62 106 2.63  88 2.68  94 2.71
  83  0.272  0.864  0.185- 143 2.03 139 2.03 101 2.62 107 2.63  89 2.68  95 2.71
  84  0.772  0.864  0.185- 144 2.03 140 2.03 102 2.62 108 2.63  90 2.68  96 2.71
  85  0.125  0.167  0.000-  25 2.56  37 2.56  39 2.56  29 2.56  68 2.68  79 2.68  73 2.79  61 2.79

  86  0.625  0.167  0.000-  26 2.56  38 2.56  40 2.56  30 2.56  67 2.68  80 2.68  74 2.79  62 2.79

[...]

  91  0.375  0.167  0.000-   1 2.54   7 2.54   3 2.54  11 2.54  67 2.71  79 2.71
  92  0.875  0.167  0.000-   8 2.54   2 2.54   4 2.54  12 2.54  68 2.71  80 2.71
  93  0.375  0.500  0.000-   3 2.54   9 2.54   7 2.54   5 2.54  69 2.71  81 2.71
  94  0.875  0.500  0.000-   4 2.54  10 2.54   8 2.54   6 2.54  70 2.71  82 2.71
  95  0.375  0.833  0.000-   5 2.54  11 2.54   9 2.54   1 2.55  71 2.71  83 2.71
  96  0.875  0.833  0.000-   6 2.54  12 2.54  10 2.54   2 2.54  72 2.71  84 2.71
  97  0.176  0.228  0.369-  13 2.47  55 2.61  57 2.61  79 2.62  21 2.63  19 2.63  73 2.64
  98  0.676  0.228  0.369-  14 2.47  56 2.61  58 2.61  80 2.62  22 2.63  20 2.63  74 2.64
  99  0.176  0.561  0.369-  15 2.47  57 2.61  59 2.61  81 2.62  23 2.63  21 2.63  75 2.64
 100  0.676  0.561  0.369-  16 2.47  58 2.61  60 2.61  82 2.62  24 2.63  22 2.63  76 2.64
 101  0.176  0.895  0.369-  17 2.47  59 2.61  55 2.61  83 2.62  19 2.63  23 2.63  77 2.64
 102  0.676  0.895  0.369-  18 2.47  60 2.61  56 2.61  84 2.62  20 2.63  24 2.63  78 2.64
 103  0.415  0.228  0.368-  49 2.40  45 2.48  43 2.48  79 2.63  74 2.66
 104  0.915  0.228  0.368-  50 2.40  46 2.48  44 2.48  80 2.63  73 2.66
 105  0.415  0.561  0.368-  51 2.40  47 2.48  45 2.48  81 2.63  76 2.66
 106  0.915  0.561  0.368-  52 2.40  48 2.48  46 2.48  82 2.63  75 2.66
 107  0.415  0.895  0.368-  53 2.40  43 2.48  47 2.48  83 2.63  78 2.66
 108  0.915  0.895  0.368-  54 2.40  44 2.48  48 2.48  84 2.63  77 2.66
 109  0.074  0.105  0.631-  19 2.47  50 2.61  54 2.61  68 2.62  17 2.63  13 2.63  61 2.64
 110  0.574  0.105  0.631-  20 2.47  49 2.61  53 2.61  67 2.62  18 2.63  14 2.63  62 2.64
 111  0.074  0.439  0.631-  21 2.47  52 2.61  50 2.61  70 2.62  13 2.63  15 2.63  63 2.64
 112  0.574  0.439  0.631-  22 2.47  51 2.61  49 2.61  69 2.62  14 2.63  16 2.63  64 2.64
 113  0.074  0.772  0.631-  23 2.47  54 2.61  52 2.61  72 2.62  15 2.63  17 2.63  65 2.64
 114  0.574  0.772  0.631-  24 2.47  53 2.61  51 2.61  71 2.62  16 2.63  18 2.63  66 2.64
 115  0.335  0.105  0.632-  55 2.40  35 2.48  31 2.48  67 2.63  61 2.66
 116  0.835  0.105  0.632-  56 2.40  36 2.48  32 2.48  68 2.63  62 2.66
 117  0.335  0.439  0.632-  57 2.40  31 2.48  33 2.48  69 2.63  63 2.66
 118  0.835  0.439  0.632-  58 2.40  32 2.48  34 2.48  70 2.63  64 2.66
 119  0.335  0.772  0.632-  59 2.40  33 2.48  35 2.48  71 2.63  65 2.66
 120  0.835  0.772  0.632-  60 2.40  34 2.48  36 2.48  72 2.63  66 2.66
 121  0.225  0.301  0.806-  31 1.94  25 1.95   7 1.97  63 2.02  61 2.02  13 2.04
 122  0.725  0.301  0.806-  32 1.94  26 1.95   8 1.97  64 2.02  62 2.02  14 2.04
 123  0.225  0.634  0.806-  33 1.94  27 1.95   9 1.97  65 2.02  63 2.02  15 2.04
 124  0.725  0.634  0.806-  34 1.94  28 1.95  10 1.97  66 2.02  64 2.02  16 2.04
 125  0.225  0.968  0.806-  35 1.94  29 1.95  11 1.97  61 2.02  65 2.02  17 2.04
 126  0.725  0.968  0.806-  36 1.94  30 1.95  12 1.97  62 2.02  66 2.02  18 2.04
 127  0.476  0.301  0.809-  26 1.99  31 2.00  69 2.03  67 2.03   3 2.03  49 2.12
 128  0.976  0.301  0.809-  25 1.99  32 2.00  70 2.03  68 2.03   4 2.03  50 2.12
 129  0.476  0.635  0.809-  28 1.99  33 2.00  69 2.03  71 2.03   5 2.03  51 2.12
 130  0.976  0.635  0.809-  27 1.99  34 2.00  70 2.03  72 2.03   6 2.03  52 2.12
 131  0.476  0.968  0.809-  30 1.99  35 2.00  71 2.03  67 2.03   1 2.03  53 2.12
 132  0.976  0.968  0.809-  29 1.99  36 2.00  72 2.03  68 2.03   2 2.03  54 2.12
 133  0.025  0.032  0.194-  44 1.94  37 1.95   2 1.97  77 2.02  73 2.02  19 2.04
 134  0.525  0.032  0.194-  43 1.94  38 1.95   1 1.97  78 2.02  74 2.02  20 2.04
 135  0.025  0.366  0.194-  46 1.94  39 1.95   4 1.97  73 2.02  75 2.02  21 2.04
 136  0.525  0.366  0.194-  45 1.94  40 1.95   3 1.97  74 2.02  76 2.02  22 2.04
 137  0.025  0.699  0.194-  48 1.94  41 1.95   6 1.97  75 2.02  77 2.02  23 2.04
 138  0.525  0.699  0.194-  47 1.94  42 1.95   5 1.97  76 2.02  78 2.02  24 2.04
 139  0.274  0.032  0.191-  37 1.99  43 2.00  79 2.03  83 2.03  11 2.03  55 2.12
 140  0.774  0.032  0.191-  38 1.99  44 2.00  80 2.03  84 2.03  12 2.03  56 2.12
 141  0.274  0.365  0.191-  39 1.99  45 2.00  81 2.03  79 2.03   7 2.03  57 2.12
 142  0.774  0.365  0.191-  40 1.99  46 2.00  82 2.03  80 2.03   8 2.03  58 2.12
 143  0.274  0.699  0.191-  41 1.99  47 2.00  81 2.03  83 2.03   9 2.03  59 2.12
 144  0.774  0.699  0.191-  42 1.99  48 2.00  82 2.03  84 2.03  10 2.03  60 2.12

IMPORTANT INFORMATION: All symmetrisations will be switched off!
NOSYMM: (Re-)initialisation of all symmetry stuff for point group C_1.

 KPOINTS: # No comment

Automatic generation of k-mesh.
Space group operators:
 irot       det(A)        alpha          n_x          n_y          n_z        tau_x        tau_y        tau_z
    1     1.000000     0.000000     1.000000     0.000000     0.000000     0.000000     0.000000     0.000000

 Subroutine IBZKPT returns following result:

 Found     10 irreducible k-points:

 Following reciprocal coordinates:
            Coordinates               Weight
  0.000000  0.000000  0.000000      1.000000
  0.500000 -0.000000  0.000000      1.000000
 -0.000000  0.333333 -0.000000      2.000000
  0.500000  0.333333 -0.000000      2.000000
 -0.000000  0.000000  0.333333      2.000000
  0.500000  0.000000  0.333333      2.000000
[...]
    -0.061755670 -0.111681970 10.544426380     0.017402163  0.018188271  0.095131394

  length of vectors
    15.464222575 12.144908886 10.545198638     0.065855782  0.083956568  0.098405440

 FORCES acting on ions
    electron-ion (+dipol)            ewald-force                    non-local-force                 convergence-correction
   0.181E+02 -.869E+00 -.124E+02   -.183E+02 0.978E+00 0.130E+02   0.147E+00 -.134E+00 -.652E+00   0.278E-04 -.123E-03 -.573E-04
   0.182E+02 -.164E+01 -.122E+02   -.183E+02 0.175E+01 0.129E+02   0.146E+00 -.116E+00 -.655E+00   -.236E-04 0.983E-05 -.303E-04
   0.182E+02 -.168E+01 -.122E+02   -.183E+02 0.180E+01 0.129E+02   0.146E+00 -.118E+00 -.655E+00   0.637E-04 -.766E-04 -.529E-04
   0.182E+02 -.164E+01 -.122E+02   -.183E+02 0.176E+01 0.129E+02   0.146E+00 -.116E+00 -.655E+00   0.392E-04 -.238E-04 -.611E-04
   0.182E+02 -.168E+01 -.122E+02   -.183E+02 0.180E+01 0.129E+02   0.147E+00 -.118E+00 -.655E+00   -.103E-04 -.569E-04 -.765E-04
   0.182E+02 -.164E+01 -.122E+02   -.183E+02 0.176E+01 0.129E+02   0.146E+00 -.116E+00 -.655E+00   0.225E-04 -.155E-04 -.708E-04
   -.181E+02 0.163E+01 0.122E+02   0.183E+02 -.174E+01 -.129E+02   -.145E+00 0.114E+00 0.655E+00   -.112E-04 -.511E-05 0.723E-04
   -.182E+02 0.164E+01 0.122E+02   0.183E+02 -.175E+01 -.129E+02   -.147E+00 0.116E+00 0.655E+00   -.518E-04 0.849E-05 0.772E-04
   -.182E+02 0.163E+01 0.122E+02   0.183E+02 -.174E+01 -.129E+02   -.147E+00 0.114E+00 0.656E+00   -.111E-05 0.558E-05 0.593E-04
   -.182E+02 0.164E+01 0.122E+02   0.183E+02 -.175E+01 -.129E+02   -.146E+00 0.116E+00 0.655E+00   -.265E-04 -.209E-04 0.698E-04
   -.182E+02 0.168E+01 0.122E+02   0.183E+02 -.180E+01 -.129E+02   -.146E+00 0.119E+00 0.655E+00   -.142E-04 0.599E-04 0.758E-04
   -.182E+02 0.165E+01 0.122E+02   0.183E+02 -.177E+01 -.129E+02   -.146E+00 0.117E+00 0.655E+00   0.152E-04 0.329E-04 0.739E-04
   0.218E+02 0.168E+02 0.867E+02   -.219E+02 -.167E+02 -.861E+02   0.696E-01 -.111E+00 -.614E+00   0.585E-04 0.198E-04 0.157E-03
   0.218E+02 0.168E+02 0.867E+02   -.219E+02 -.167E+02 -.861E+02   0.696E-01 -.111E+00 -.614E+00   0.417E-04 0.140E-04 0.148E-03
   0.218E+02 0.168E+02 0.867E+02   -.219E+02 -.167E+02 -.861E+02   0.693E-01 -.111E+00 -.614E+00   0.515E-04 0.211E-04 0.155E-03
   0.218E+02 0.168E+02 0.867E+02   -.219E+02 -.167E+02 -.861E+02   0.694E-01 -.111E+00 -.614E+00   0.376E-04 0.290E-04 0.171E-03
   0.218E+02 0.168E+02 0.867E+02   -.219E+02 -.167E+02 -.861E+02   0.694E-01 -.111E+00 -.614E+00   0.655E-04 0.425E-04 0.183E-03
   0.218E+02 0.168E+02 0.867E+02   -.219E+02 -.167E+02 -.861E+02   0.694E-01 -.111E+00 -.613E+00   0.361E-04 0.354E-04 0.183E-03
   -.218E+02 -.168E+02 -.867E+02   0.219E+02 0.167E+02 0.861E+02   -.695E-01 0.111E+00 0.614E+00   0.243E-05 -.853E-05 -.113E-03
   -.218E+02 -.168E+02 -.867E+02   0.219E+02 0.166E+02 0.861E+02   -.695E-01 0.111E+00 0.614E+00   -.383E-04 -.129E-04 -.175E-03
   -.218E+02 -.168E+02 -.867E+02   0.219E+02 0.167E+02 0.861E+02   -.695E-01 0.111E+00 0.614E+00   -.563E-04 -.149E-04 -.147E-03
   -.218E+02 -.168E+02 -.867E+02   0.219E+02 0.167E+02 0.861E+02   -.696E-01 0.111E+00 0.613E+00   -.331E-04 -.116E-04 -.163E-03
   -.218E+02 -.168E+02 -.867E+02   0.219E+02 0.167E+02 0.861E+02   -.694E-01 0.111E+00 0.614E+00   -.679E-04 -.482E-04 -.161E-03
   -.218E+02 -.168E+02 -.867E+02   0.219E+02 0.167E+02 0.861E+02   -.693E-01 0.111E+00 0.614E+00   -.336E-04 -.310E-04 -.166E-03
   -.246E+02 -.437E+01 -.191E+02   0.250E+02 0.437E+01 0.190E+02   -.446E+00 -.477E-02 0.583E-01   -.797E-04 -.197E-04 0.415E-04
   -.246E+02 -.438E+01 -.191E+02   0.250E+02 0.439E+01 0.190E+02   -.447E+00 -.532E-02 0.589E-01   -.911E-04 -.256E-04 0.563E-04
   -.246E+02 -.437E+01 -.191E+02   0.250E+02 0.438E+01 0.190E+02   -.447E+00 -.476E-02 0.585E-01   -.693E-04 -.711E-05 0.395E-04
   -.245E+02 -.438E+01 -.191E+02   0.250E+02 0.439E+01 0.190E+02   -.447E+00 -.552E-02 0.581E-01   -.759E-04 0.529E-06 0.492E-04
   -.246E+02 -.436E+01 -.191E+02   0.250E+02 0.437E+01 0.190E+02   -.447E+00 -.433E-02 0.583E-01   -.838E-04 0.349E-04 0.684E-04
   -.246E+02 -.432E+01 -.191E+02   0.250E+02 0.432E+01 0.190E+02   -.447E+00 -.311E-02 0.581E-01   -.806E-04 0.240E-04 0.463E-04
   0.369E+02 0.379E+01 0.137E+02   -.375E+02 -.386E+01 -.140E+02   0.539E+00 0.763E-01 0.315E+00   0.714E-04 0.392E-05 0.246E-04
   0.369E+02 0.380E+01 0.137E+02   -.375E+02 -.387E+01 -.140E+02   0.539E+00 0.766E-01 0.315E+00   0.844E-04 0.231E-04 -.922E-05
   0.369E+02 0.378E+01 0.137E+02   -.375E+02 -.386E+01 -.140E+02   0.539E+00 0.760E-01 0.314E+00   0.578E-04 0.286E-04 -.189E-04
   0.369E+02 0.380E+01 0.137E+02   -.375E+02 -.387E+01 -.140E+02   0.539E+00 0.765E-01 0.314E+00   0.785E-04 -.882E-05 -.863E-05
   0.369E+02 0.385E+01 0.137E+02   -.375E+02 -.393E+01 -.140E+02   0.539E+00 0.776E-01 0.314E+00   0.673E-04 0.609E-05 0.393E-04
   0.369E+02 0.380E+01 0.137E+02   -.375E+02 -.388E+01 -.140E+02   0.539E+00 0.767E-01 0.314E+00   0.894E-04 0.248E-04 0.666E-04
   0.246E+02 0.437E+01 0.191E+02   -.250E+02 -.438E+01 -.190E+02   0.447E+00 0.493E-02 -.584E-01   0.444E-04 -.936E-06 -.762E-04
   0.246E+02 0.442E+01 0.191E+02   -.250E+02 -.443E+01 -.190E+02   0.447E+00 0.615E-02 -.587E-01   0.924E-04 -.164E-04 -.432E-04
   0.246E+02 0.436E+01 0.191E+02   -.250E+02 -.437E+01 -.190E+02   0.447E+00 0.446E-02 -.584E-01   0.621E-04 0.317E-05 -.282E-04
   0.245E+02 0.435E+01 0.191E+02   -.250E+02 -.435E+01 -.190E+02   0.446E+00 0.378E-02 -.586E-01   0.632E-04 -.197E-04 -.463E-04
   0.246E+02 0.437E+01 0.191E+02   -.250E+02 -.437E+01 -.190E+02   0.446E+00 0.448E-02 -.584E-01   0.820E-04 0.133E-06 -.423E-04
   0.246E+02 0.435E+01 0.191E+02   -.250E+02 -.436E+01 -.190E+02   0.447E+00 0.393E-02 -.579E-01   0.964E-04 -.306E-04 -.314E-04
   -.369E+02 -.374E+01 -.137E+02   0.375E+02 0.382E+01 0.140E+02   -.539E+00 -.756E-01 -.315E+00   -.693E-04 0.662E-05 -.317E-04
   -.369E+02 -.380E+01 -.137E+02   0.375E+02 0.387E+01 0.140E+02   -.539E+00 -.765E-01 -.315E+00   -.864E-04 0.441E-05 -.818E-04
   -.369E+02 -.382E+01 -.137E+02   0.375E+02 0.390E+01 0.140E+02   -.539E+00 -.772E-01 -.315E+00   -.783E-04 -.370E-04 -.359E-04
   -.369E+02 -.380E+01 -.137E+02   0.375E+02 0.388E+01 0.140E+02   -.539E+00 -.767E-01 -.315E+00   -.826E-04 -.842E-05 -.415E-05
   -.369E+02 -.381E+01 -.137E+02   0.375E+02 0.389E+01 0.140E+02   -.539E+00 -.769E-01 -.314E+00   -.708E-04 -.945E-05 -.101E-04
   -.369E+02 -.380E+01 -.137E+02   0.375E+02 0.388E+01 0.140E+02   -.539E+00 -.766E-01 -.314E+00   -.844E-04 -.433E-04 0.149E-04
   -.489E+02 0.728E+02 0.403E+03   0.504E+02 -.730E+02 -.404E+03   -.145E+01 0.141E+00 0.104E+01   0.212E-03 0.110E-03 -.218E-04
   -.489E+02 0.729E+02 0.403E+03   0.504E+02 -.730E+02 -.404E+03   -.145E+01 0.142E+00 0.104E+01   0.134E-03 0.200E-03 0.114E-03
   -.489E+02 0.728E+02 0.403E+03   0.504E+02 -.730E+02 -.404E+03   -.145E+01 0.141E+00 0.104E+01   0.185E-03 0.231E-03 0.113E-03
   -.489E+02 0.729E+02 0.403E+03   0.504E+02 -.730E+02 -.404E+03   -.145E+01 0.141E+00 0.104E+01   0.120E-03 0.151E-03 0.398E-04
   -.489E+02 0.729E+02 0.403E+03   0.504E+02 -.731E+02 -.404E+03   -.145E+01 0.144E+00 0.104E+01   0.239E-03 0.121E-03 0.137E-03
   -.489E+02 0.729E+02 0.403E+03   0.504E+02 -.730E+02 -.404E+03   -.145E+01 0.143E+00 0.104E+01   0.143E-03 -.566E-04 -.140E-03
   0.489E+02 -.728E+02 -.403E+03   -.504E+02 0.730E+02 0.404E+03   0.145E+01 -.141E+00 -.104E+01   -.204E-03 0.109E-03 -.686E-04
   0.489E+02 -.728E+02 -.403E+03   -.504E+02 0.730E+02 0.404E+03   0.145E+01 -.141E+00 -.104E+01   -.287E-03 0.146E-03 -.106E-03
   0.489E+02 -.729E+02 -.403E+03   -.504E+02 0.730E+02 0.404E+03   0.145E+01 -.143E+00 -.104E+01   -.211E-03 -.229E-03 -.641E-04
   0.489E+02 -.729E+02 -.403E+03   -.504E+02 0.730E+02 0.404E+03   0.145E+01 -.143E+00 -.104E+01   -.262E-03 -.262E-03 -.240E-04
   0.489E+02 -.729E+02 -.403E+03   -.504E+02 0.730E+02 0.404E+03   0.145E+01 -.143E+00 -.104E+01   -.218E-03 -.170E-03 -.106E-03
   0.489E+02 -.729E+02 -.403E+03   -.504E+02 0.730E+02 0.404E+03   0.145E+01 -.143E+00 -.104E+01   -.267E-03 -.236E-03 -.966E-04
[...]
   -.604E+01 -.200E+02 -.109E+03   0.624E+01 0.206E+02 0.112E+03   -.202E+00 -.559E+00 -.317E+01   0.559E-04 -.123E-03 0.475E-04
   -.603E+01 -.203E+02 -.109E+03   0.623E+01 0.209E+02 0.112E+03   -.201E+00 -.591E+00 -.317E+01   -.958E-04 0.109E-03 0.409E-03
   -.102E+02 -.967E+01 -.504E+02   0.105E+02 0.975E+01 0.508E+02   -.330E+00 -.716E-01 -.332E+00   -.410E-04 -.207E-04 -.385E-03
   -.102E+02 -.938E+01 -.505E+02   0.105E+02 0.942E+01 0.508E+02   -.331E+00 -.371E-01 -.338E+00   0.120E-04 -.129E-03 0.131E-03
   -.102E+02 -.968E+01 -.504E+02   0.105E+02 0.975E+01 0.508E+02   -.330E+00 -.738E-01 -.332E+00   0.129E-03 0.276E-06 0.531E-04
   -.102E+02 -.973E+01 -.505E+02   0.105E+02 0.981E+01 0.508E+02   -.331E+00 -.773E-01 -.334E+00   0.141E-05 -.183E-04 -.180E-04
   -.102E+02 -.968E+01 -.504E+02   0.105E+02 0.975E+01 0.508E+02   -.330E+00 -.735E-01 -.332E+00   0.997E-04 -.417E-04 0.170E-03
   -.102E+02 -.972E+01 -.504E+02   0.105E+02 0.979E+01 0.507E+02   -.328E+00 -.761E-01 -.329E+00   0.158E-04 -.105E-04 0.247E-03
   0.603E+01 0.203E+02 0.109E+03   -.623E+01 -.209E+02 -.112E+03   0.201E+00 0.597E+00 0.317E+01   -.880E-04 -.530E-06 -.235E-04
   0.603E+01 0.203E+02 0.109E+03   -.623E+01 -.209E+02 -.112E+03   0.201E+00 0.595E+00 0.317E+01   -.191E-03 0.260E-04 0.561E-04
   0.605E+01 0.203E+02 0.109E+03   -.625E+01 -.209E+02 -.112E+03   0.203E+00 0.589E+00 0.317E+01   -.874E-04 0.299E-04 0.723E-04
   0.602E+01 0.203E+02 0.109E+03   -.622E+01 -.209E+02 -.112E+03   0.200E+00 0.590E+00 0.317E+01   -.117E-03 0.405E-04 0.234E-04
   0.602E+01 0.203E+02 0.109E+03   -.622E+01 -.209E+02 -.112E+03   0.200E+00 0.590E+00 0.317E+01   -.577E-04 0.106E-04 -.774E-04
   0.604E+01 0.203E+02 0.109E+03   -.625E+01 -.209E+02 -.112E+03   0.203E+00 0.591E+00 0.317E+01   -.700E-04 -.329E-04 0.230E-04
   0.106E-02 -.101E-01 0.225E-02   -.311E-13 -.455E-12 -.132E-11   -.188E-03 0.935E-02 -.142E-02   -.898E-03 0.805E-03 -.819E-03

 POSITION                                       TOTAL-FORCE (eV/Angst)
      7.22879      0.02066     -1.27939         0.001228     -0.025562      0.004563
     14.83494      0.01342     -2.66938         0.000131     -0.000427     -0.000098
      7.09313      3.98939     -2.01336         0.000356      0.001096     -0.000390
     14.69895      3.99197     -3.40517         0.000109      0.000041     -0.000158
      6.95714      7.96794     -2.74915        -0.000169      0.001085     -0.000322
     14.56295      7.97052     -4.14096         0.000158      0.000042     -0.000164
      3.98184      3.85991      8.99850        -0.000711      0.001107      0.000072
     11.58765      3.86250      7.60670         0.000268      0.000561     -0.000017
      3.84584      7.83847      8.26272         0.000377      0.001106     -0.000150
     11.45166      7.84105      6.87091        -0.000568      0.000567      0.000137
      3.70985     11.81702      7.52693        -0.000073     -0.001723      0.000463
     11.31566     11.81960      6.13512        -0.000120     -0.000548      0.000256
      2.55910      3.13146      5.32254        -0.000518      0.000487      0.000033
     10.16492      3.13404      3.93074        -0.000451      0.000503      0.000114
      2.42311      7.11001      4.58676        -0.000369      0.000561      0.000232
     10.02892      7.11259      3.19495        -0.000443      0.000571      0.000199
      2.28711     11.08856      3.85097        -0.000441      0.000242      0.000098
      9.89292     11.09115      2.45916        -0.000442      0.000222      0.000056
      1.04605      0.73671      3.79019         0.000443     -0.000570     -0.000138
      8.65187      0.73929      2.39838         0.000451     -0.000751     -0.000176
      0.91006      4.71526      3.05441         0.000436     -0.000331     -0.000111
      8.51587      4.71784      1.66260         0.000482     -0.000314     -0.000016
      0.77406      8.69381      2.31862         0.000447     -0.000375     -0.000109
      8.37988      8.69640      0.92681         0.000403     -0.000373     -0.000139
      1.45504      3.57815      7.94200        -0.000450      0.000210     -0.000224
      9.06085      3.58074      6.55019        -0.000353      0.000550     -0.000622
      1.31904      7.55671      7.20621        -0.000161      0.000230     -0.000230
      8.92486      7.55929      5.81440        -0.000281      0.000703      0.000015
      1.18305     11.53526      6.47042        -0.000279     -0.000148     -0.000168
      8.78886     11.53784      5.07861        -0.000272     -0.001331      0.000066
      5.07438      3.44123      6.53268        -0.001434      0.000168     -0.000625
     12.68020      3.44382      5.14088        -0.001255     -0.000202     -0.000081
      4.93839      7.41979      5.79690        -0.001247      0.000417      0.000377
     12.54420      7.42237      4.40509        -0.001390     -0.000152     -0.000001
      4.80239     11.39834      5.06111        -0.001250     -0.001726      0.000235
     12.40821     11.40092      3.66930        -0.001333     -0.000390     -0.000020
      2.15012      0.29001      1.17074         0.000325     -0.000362      0.000243
      9.75593      0.29260     -0.22107         0.000337     -0.001695      0.000491
      2.01412      4.26856      0.43495         0.000184      0.000046      0.000228
      9.61994      4.27115     -0.95685         0.000387      0.000489      0.000418
      1.87813      8.24712     -0.30083         0.000421      0.000011      0.000144
      9.48394      8.24970     -1.69264         0.000196      0.000356     -0.000194
      6.13659      0.42951      1.18824         0.001394     -0.001421      0.000306
     13.74240      0.43210     -0.20356         0.001303      0.000108      0.000065
      6.00059      4.40807      0.45246         0.001360      0.000899      0.000441
     13.60640      4.41065     -0.93935         0.001391      0.000328      0.000042
      5.86459      8.38662     -0.28333         0.001224      0.000648     -0.000555
     13.47041      8.38920     -1.67514         0.001247      0.000295     -0.000001
      6.92999      3.12103      4.45828         0.000093      0.000548     -0.000196
     14.53580      3.12361      3.06647        -0.000010      0.000549     -0.000169
      6.79399      7.09958      3.72249        -0.000026      0.000697      0.000064
     14.39981      7.10216      2.33068        -0.000005      0.000619     -0.000169
      6.65800     11.07813      2.98670        -0.000102     -0.000229     -0.000381
     14.26381     11.08072      1.59490        -0.000026      0.000167     -0.000247
      4.28098      0.74972      3.26265        -0.000076     -0.000892     -0.000044
     11.88680      0.75231      1.87084        -0.000003     -0.000812      0.000166
      4.14499      4.72827      2.52686        -0.000003     -0.000128      0.000465
     11.75080      4.73086      1.13506         0.000068     -0.000192      0.000354
      4.00899      8.70683      1.79108         0.000127     -0.000283      0.000149
     11.61480      8.70941      0.39927        -0.000028     -0.000309      0.000047
[...]
     14.54042      7.49110      4.40776        -0.000439     -0.000403     -0.000261
      6.79861     11.46707      5.06378        -0.000639      0.006020     -0.001288
     14.40443     11.46965      3.67197        -0.000431      0.000339     -0.000330
      0.35096      0.36513      1.90947         0.000016      0.000413     -0.000053
      7.95677      0.36772      0.51767        -0.000233      0.006898     -0.001331
      0.21496      4.34368      1.17369         0.000032     -0.000388     -0.000036
      7.82078      4.34627     -0.21812        -0.000246     -0.001645     -0.000431
      0.07897      8.32224      0.43790         0.000015     -0.000290      0.000078
      7.68478      8.32482     -0.95391         0.000396     -0.001293      0.000876
      4.14036      0.36078      1.18558         0.000380      0.001865     -0.000034
     11.74618      0.36337     -0.20623         0.000411      0.001217      0.000030
      4.00437      4.33934      0.44979         0.000876     -0.001095     -0.000365
     11.61018      4.34192     -0.94202         0.000078     -0.000670     -0.000060
      3.86837      8.31789     -0.28600         0.000058     -0.000726      0.001152
     11.47419      8.32047     -1.67780         0.000831     -0.000439      0.000757
    total drift:                               -0.000025      0.000084      0.000011

  FREE ENERGIE OF THE ION-ELECTRON SYSTEM (eV)
  free  energy   TOTEN  =      -746.63107243 eV

  energy  without entropy=     -746.63107243  energy(sigma->0) =     -746.63107243