 vasp.6.2.0 18Jan21 (build Feb  9 2021 11:43:09) complex
 executed on       CrayXC_GCC_OMP date 2021.05.04  22:38:24

 INCAR:
   AEXX = 0.25
   ALGO = all
   EDIFF = 9e-06
   EDIFFG = -0.03
   ENCUT = 520
   GGA = pe
   HFSCREEN = 0.207
   IBRION = 2
   ISIF = 3
   ISMEAR = 0
   ISPIN = 2
   KPAR = 52
   LASPH = .TRUE.
   LHFCALC = .TRUE.
   LMAXFOCK = 4
   LORBIT = 11
   LREAL = .FALSE.
   LVHAR = .TRUE.
   LWAVE = .TRUE.
   MAGMOM = 0.6 0.6 0.6 0.6 0.6 0.6 5 5 5
   NCORE = 1
   NEDOS = 2000
   NELM = 200
   NELMIN = 4
   NSW = 60
   NWRITE = 1
   PREC = accurate
   PRECFOCK = fast
   SIGMA = 0.05
   SYMPREC = 1e-07
   TIME = 0.3

 POTCAR:    PAW_PBE Li_sv 10Sep2004
 POTCAR:    PAW_PBE O 08Apr2002
 POTCAR:    PAW_PBE S 06Sep2000
 POTCAR:    PAW_PBE Fe_pv 02Aug2007
 POTCAR:    PAW_PBE Li_sv 10Sep2004

 POTCAR:    PAW_PBE O 08Apr2002

 POTCAR:    PAW_PBE S 06Sep2000

 POTCAR:    PAW_PBE Fe_pv 02Aug2007

  PAW_PBE Li_sv 10Sep2004               :
  PAW_PBE O 08Apr2002                   :
  PAW_PBE S 06Sep2000                   :
  PAW_PBE Fe_pv 02Aug2007               :

 POSCAR: # Compound: Li2O2S2Fe3. Old comment: LFS
  positions in direct lattice
 exchange correlation table for  LEXCH =        8
   RHO(1)=    0.500       N(1)  =     2000
   RHO(2)=  100.500       N(2)  =     4000

 ion  position               nearest neighbor table
   1  0.318  0.538  0.953-   4 1.99   3 2.01   6 2.53   6 2.53
   2  0.318  0.953  0.538-   3 1.99   4 2.01   6 2.53   6 2.53
   3  0.318  0.239  0.750-   8 1.98   8 1.98   2 1.99   9 1.99   1 2.01
   4  0.318  0.750  0.239-   7 1.98   7 1.98   1 1.99   9 1.99   2 2.01
   5  0.819  0.236  0.236-   8 2.48   7 2.48   9 2.48   9 2.48
   6  0.818  0.750  0.749-   1 2.53   7 2.53   8 2.53   2 2.53   1 2.53   2 2.53
   7  0.818  0.672  0.306-   4 1.98   4 1.98   5 2.48   6 2.53
   8  0.818  0.306  0.672-   3 1.98   3 1.98   5 2.48   6 2.53
   9  0.319  0.033  0.033-   3 1.99   4 1.99   5 2.48   5 2.48

  LATTYP: Found a triclinic cell.
 ALAT       =     9.4499950416
 B/A-ratio  =     0.4013779770
 C/A-ratio  =     1.3447276920
 COS(alpha) =     0.0000030385
 COS(beta)  =     0.5344964700
 COS(gamma) =     0.8027744560

  Lattice vectors:

 A1 = (  -7.5861206500,   0.1625783500,  -5.6326501800)
 A2 = (  -3.7930198900,  -0.0001074800,  -0.0000663900)
 A3 = (  -0.0000110500,   5.9599563600, -11.2233594600)

Analysis of symmetry for initial positions (statically):
 Subroutine PRICEL returns:
 Original cell was already a primitive cell.

 Routine SETGRP: Setting up the symmetry group for a
 triclinic supercell.

 Subroutine GETGRP returns: Found  1 space group operations
 (whereof  1 operations were pure point group operations)
 out of a pool of  2 trial point group operations.

The static configuration has the point symmetry C_1 .

Analysis of symmetry for dynamics (positions and initial velocities):
 Subroutine PRICEL returns:
 Original cell was already a primitive cell.

[...]

The dynamic configuration has the point symmetry C_1 .

Analysis of structural, dynamic, and magnetic symmetry:
 Subroutine PRICEL returns:
 Original cell was already a primitive cell.

 Routine SETGRP: Setting up the symmetry group for a
 triclinic supercell.

 Subroutine GETGRP returns: Found  1 space group operations
 (whereof  1 operations were pure point group operations)
 out of a pool of  2 trial point group operations.

The overall configuration has the point symmetry C_1 .

 Subroutine INISYM returns: Found  1 space group operations
 (whereof  1 operations are pure point group operations),
 and found     1 'primitive' translations

                                     Primitive cell

  volume of cell :     120.3998

  direct lattice vectors                    reciprocal lattice vectors
     3.793019890  0.000107480  0.000066390     0.263642172 -0.000007022 -0.000003988
     0.000150690  5.634369740  0.041675340    -0.000005118  0.177444206  0.005128565
     0.000080870 -0.162793310  5.632517400    -0.000003070 -0.001312920  0.177502561

  length of vectors
     3.793019892  5.634523868  5.634869469     0.263642172  0.177518305  0.177507417

  position of ions in fractional coordinates (direct lattice)
     0.317766510  0.538195410  0.953024140
     0.317766830  0.953227690  0.538003830
     0.318050730  0.239491390  0.750313880
     0.318067700  0.750351610  0.239322300
     0.818612990  0.236213900  0.236247720
     0.818013780  0.749527230  0.749354690
     0.818181550  0.672346510  0.305878840
     0.818173690  0.305989570  0.672269980
     0.318759920  0.033063240  0.032959440

  ion indices of the primitive-cell ions
   primitive index   ion index
                 1           1
                 2           2
                 3           3
                 4           4
                 5           5
                 6           6
                 7           7
                 8           8
                 9           9

 KPOINTS: # No comment

Automatic generation of k-mesh.
 Grid dimensions read from file:
 generate k-points for:    6    4    4

 Generating k-lattice:

  Cartesian coordinates                     Fractional coordinates (reciprocal lattice)
     0.043940362 -0.000001170 -0.000000665     0.166666667  0.000000000 -0.000000000
    -0.000001279  0.044361052  0.001282141     0.000000000  0.250000000  0.000000000
    -0.000000767 -0.000328230  0.044375640     0.000000000 -0.000000000  0.250000000

  Length of vectors
     0.043940362  0.044379576  0.044376854

  Shift w.r.t. Gamma in fractional coordinates (k-lattice)
     0.000000000  0.000000000  0.000000000

 Subroutine IBZKPT returns following result:

 Found     52 irreducible k-points:

 Following reciprocal coordinates:
            Coordinates               Weight
  0.000000  0.000000  0.000000      1.000000
  0.166667  0.000000  0.000000      2.000000
  0.333333  0.000000  0.000000      2.000000
  0.500000  0.000000  0.000000      1.000000
  0.000000  0.250000  0.000000      2.000000
  0.166667  0.250000  0.000000      2.000000
  0.333333  0.250000  0.000000      2.000000
  0.500000  0.250000  0.000000      2.000000
 -0.333333  0.250000  0.000000      2.000000
 -0.166667  0.250000  0.000000      2.000000
  0.000000  0.500000  0.000000      1.000000
  0.166667  0.500000  0.000000      2.000000
  0.333333  0.500000  0.000000      2.000000
  0.500000  0.500000  0.000000      1.000000
  0.000000  0.000000  0.250000      2.000000
  0.166667  0.000000  0.250000      2.000000
  0.333333  0.000000  0.250000      2.000000
  0.500000  0.000000  0.250000      2.000000
 -0.333333  0.000000  0.250000      2.000000
 -0.166667  0.000000  0.250000      2.000000
  0.000000  0.250000  0.250000      2.000000
  0.166667  0.250000  0.250000      2.000000
  0.333333  0.250000  0.250000      2.000000
  0.500000  0.250000  0.250000      2.000000
 -0.333333  0.250000  0.250000      2.000000
 -0.166667  0.250000  0.250000      2.000000
  0.000000  0.500000  0.250000      2.000000
  0.166667  0.500000  0.250000      2.000000
  0.333333  0.500000  0.250000      2.000000
  0.500000  0.500000  0.250000      2.000000
 -0.333333  0.500000  0.250000      2.000000
 -0.166667  0.500000  0.250000      2.000000
  0.000000 -0.250000  0.250000      2.000000
  0.166667 -0.250000  0.250000      2.000000
  0.333333 -0.250000  0.250000      2.000000
  0.500000 -0.250000  0.250000      2.000000
 -0.333333 -0.250000  0.250000      2.000000
 -0.166667 -0.250000  0.250000      2.000000
  0.000000  0.000000  0.500000      1.000000
  0.166667  0.000000  0.500000      2.000000
  0.333333  0.000000  0.500000      2.000000
  0.500000  0.000000  0.500000      1.000000
  0.000000  0.250000  0.500000      2.000000
  0.166667  0.250000  0.500000      2.000000
  0.333333  0.250000  0.500000      2.000000
  0.500000  0.250000  0.500000      2.000000
 -0.333333  0.250000  0.500000      2.000000
 -0.166667  0.250000  0.500000      2.000000
  0.000000  0.500000  0.500000      1.000000
  0.166667  0.500000  0.500000      2.000000
  0.333333  0.500000  0.500000      2.000000
  0.500000  0.500000  0.500000      1.000000

 Following cartesian coordinates:
            Coordinates               Weight
  0.000000  0.000000  0.000000      1.000000
  0.043940 -0.000001 -0.000001      2.000000
  0.087881 -0.000002 -0.000001      2.000000
  0.131821 -0.000004 -0.000002      1.000000
 -0.000001  0.044361  0.001282      2.000000
  0.043939  0.044360  0.001281      2.000000
  0.087879  0.044359  0.001281      2.000000
  0.131820  0.044358  0.001280      2.000000
 -0.087882  0.044363  0.001283      2.000000
 -0.043942  0.044362  0.001283      2.000000
 -0.000003  0.088722  0.002564      1.000000
  0.043938  0.088721  0.002564      2.000000
  0.087878  0.088720  0.002563      2.000000
  0.131819  0.088719  0.002562      1.000000
 -0.000001 -0.000328  0.044376      2.000000
  0.043940 -0.000329  0.044375      2.000000
  0.087880 -0.000331  0.044374      2.000000
  0.131820 -0.000332  0.044374      2.000000
 -0.087881 -0.000326  0.044377      2.000000
 -0.043941 -0.000327  0.044376      2.000000
 -0.000002  0.044033  0.045658      2.000000
  0.043938  0.044032  0.045657      2.000000
  0.087879  0.044030  0.045656      2.000000
  0.131819  0.044029  0.045656      2.000000
 -0.087883  0.044035  0.045659      2.000000
 -0.043942  0.044034  0.045658      2.000000
 -0.000003  0.088394  0.046940      2.000000
  0.043937  0.088393  0.046939      2.000000
  0.087877  0.088392  0.046939      2.000000
  0.131818  0.088390  0.046938      2.000000
 -0.087884  0.088396  0.046941      2.000000
 -0.043944  0.088395  0.046941      2.000000
  0.000001 -0.044689  0.043093      2.000000
  0.043941 -0.044690  0.043093      2.000000
  0.087881 -0.044692  0.043092      2.000000
  0.131822 -0.044693  0.043092      2.000000
 -0.087880 -0.044687  0.043095      2.000000
 -0.043940 -0.044688  0.043094      2.000000
 -0.000002 -0.000656  0.088751      1.000000
  0.043939 -0.000658  0.088751      2.000000
  0.087879 -0.000659  0.088750      2.000000
  0.131820 -0.000660  0.088749      1.000000
 -0.000003  0.043705  0.090033      2.000000
  0.043938  0.043703  0.090033      2.000000
  0.087878  0.043702  0.090032      2.000000
  0.131818  0.043701  0.090031      2.000000
 -0.087884  0.043707  0.090035      2.000000
 -0.043943  0.043706  0.090034      2.000000
 -0.000004  0.088066  0.091316      1.000000
  0.043936  0.088064  0.091315      2.000000
  0.087877  0.088063  0.091314      2.000000
  0.131817  0.088062  0.091314      1.000000

 Subroutine IBZKPT_HF returns following result:

 Found     96 k-points in 1st BZ
 the following     96 k-points will be used (e.g. in the exchange kernel)
 Following reciprocal coordinates:   # in IRBZ
  0.000000  0.000000  0.000000    0.01041667   1 t-inv F
  0.166667  0.000000  0.000000    0.01041667   2 t-inv F
  0.333333  0.000000  0.000000    0.01041667   3 t-inv F
  0.500000  0.000000  0.000000    0.01041667   4 t-inv F
  0.000000  0.250000  0.000000    0.01041667   5 t-inv F
  0.166667  0.250000  0.000000    0.01041667   6 t-inv F
  0.333333  0.250000  0.000000    0.01041667   7 t-inv F
  0.500000  0.250000  0.000000    0.01041667   8 t-inv F
[...]
 k-point  40 :   0.1667 0.0000 0.5000  plane waves:    3238
 k-point  41 :   0.3333 0.0000 0.5000  plane waves:    3252
 k-point  42 :   0.5000 0.0000 0.5000  plane waves:    3268
 k-point  43 :   0.0000 0.2500 0.5000  plane waves:    3222
 k-point  44 :   0.1667 0.2500 0.5000  plane waves:    3237
 k-point  45 :   0.3333 0.2500 0.5000  plane waves:    3243
 k-point  46 :   0.5000 0.2500 0.5000  plane waves:    3246
 k-point  47 :  -0.3333 0.2500 0.5000  plane waves:    3243
 k-point  48 :  -0.1667 0.2500 0.5000  plane waves:    3237
 k-point  49 :   0.0000 0.5000 0.5000  plane waves:    3184
 k-point  50 :   0.1667 0.5000 0.5000  plane waves:    3224
 k-point  51 :   0.3333 0.5000 0.5000  plane waves:    3232
 k-point  52 :   0.5000 0.5000 0.5000  plane waves:    3252

 maximum and minimum number of plane-waves per node :      3268     3184

 maximum number of plane-waves:      3268
 maximum index in each direction:
   IXMAX=    7   IYMAX=   10   IZMAX=   10
   IXMIN=   -7   IYMIN=  -10   IZMIN=  -10

 serial   3D FFT for wavefunctions
 parallel 3D FFT for charge:
    minimum data exchange during FFTs selected (reduces bandwidth)

 FFT grid for exact exchange (Hartree Fock)
  NGX = 16; NGY = 24; NGZ = 24

 Radii for the augmentation spheres in the non-local exchange
 for species   1 augmentation radius   0.956 (default was   0.708)
       energy cutoff for augmentation   2080.0
 for species   2 augmentation radius   0.974 (default was   0.722)
       energy cutoff for augmentation   2080.0
 for species   3 augmentation radius   1.309 (default was   0.970)
       energy cutoff for augmentation   2080.0
 for species   4 augmentation radius   1.283 (default was   0.950)
       energy cutoff for augmentation   2080.0
 Maximum index for augmentation-charges in exchange          731
  SETUP_FOCK is finished

 Broyden mixing: mesh for mixing (old mesh)
   NGX = 15   NGY = 21   NGZ = 21
  (NGX  = 56   NGY  = 84   NGZ  = 84)
  gives a total of   6615 points

 initial charge density was supplied:
 charge density of overlapping atoms calculated
 number of electron      72.0000000 magnetization      18.6000000
 keeping initial charge density in first step

 Maximum index for augmentation-charges         1569 (set IRDMAX)

 First call to EWALD:  gamma=   0.359
 Maximum number of real-space cells 3x 2x 2
 Maximum number of reciprocal cells 2x 3x 3

--------------------------------------- Iteration      1(   1)  ---------------------------------------

 eigenvalue-minimisations  : 11872
 total energy-change (2. order) :-0.4859773E+03  (-0.4000275E+04)
 number of electron      72.0000000 magnetization      18.6000000
 augmentation part       72.0000000 magnetization      18.6000000

 Free energy of the ion-electron system (eV)
  alpha Z        PSCENC =       227.58723913
  Ewald energy   TEWEN  =     -5499.96887387
  -Hartree energ DENC   =     -3059.42565989
  -exchange      EXHF   =         0.00000000
  -V(xc)+E(xc)   XCENC  =       323.86059173
  PAW double counting   =      7284.16531602    -8730.36175515
  entropy T*S    EENTRO =        -0.00372400
  eigenvalues    EBANDS =      -200.60169154
  atomic energy  EATOM  =      9168.77127541
  free energy    TOTEN  =      -485.97728216 eV

  energy without entropy =     -485.97355816  energy(sigma->0) =     -485.97542016
  exchange ACFDT corr.  =         0.00000000  see jH, gK, PRB 81, 115126

[...]

 eigenvalue-minimisations  : 13168
 total energy-change (2. order) : 0.1328669E+04  (-0.3073383E+01)
 number of electron      71.9999958 magnetization      12.8053782
 augmentation part       25.4839302 magnetization       8.9465666

[...]

 eigenvalue-minimisations  :     0
 total energy-change (2. order) : 0.4480493E+02  (-0.2621341E+02)
 number of electron      71.9999960 magnetization      12.1666686
 augmentation part       27.2307761 magnetization       9.1018665

[...]

--------------------------------------- Iteration      1(  42)  ---------------------------------------

 eigenvalue-minimisations  :     0
 total energy-change (2. order) :-0.7925739E-05  (-0.6589254E-05)
 number of electron      71.9999964 magnetization      11.9999989
 augmentation part       27.1012576 magnetization       8.0484113

 Free energy of the ion-electron system (eV)
  alpha Z        PSCENC =       227.58723913
  Ewald energy   TEWEN  =     -5499.96887387
  -Hartree energ DENC   =     -2976.82271554
  -exchange      EXHF   =       212.99292567
  -V(xc)+E(xc)   XCENC  =       244.04048688
  PAW double counting   =      9331.02528859    -9598.46914152
  entropy T*S    EENTRO =        -0.00000000
  eigenvalues    EBANDS =     -1184.66622366
  atomic energy  EATOM  =      9168.77127541
  free energy    TOTEN  =       -75.50941966 eV

  energy without entropy =      -75.50941966  energy(sigma->0) =      -75.50941966
  exchange ACFDT corr.  =        -0.00000000  see jH, gK, PRB 81, 115126

  average scaling for gradient   0.7732

 average (electrostatic) potential at core
  the test charge radii are     0.7079  0.7215  0.9698  0.9500
  (the norm of the test charge is              1.0000)
       1 -53.3509       2 -53.3515       3 -63.7943       4 -63.7940       5 -82.0347
       6 -81.9691       7 -71.4792       8 -71.4794       9 -71.1556

 E-fermi :   5.0795     XC(G=0):  -8.6540     alpha+bet :-12.0990

 Fermi energy:         5.0794558584

 spin component 1

 k-point     1 :       0.0000    0.0000    0.0000
  band No.  band energies     occupation
      1     -56.1072      1.00000
      2     -56.1057      1.00000
      3     -55.8145      1.00000
      4     -54.8152      1.00000
      5     -54.8137      1.00000
      6     -54.4924      1.00000
      7     -54.4722      1.00000
      8     -54.3221      1.00000
      9     -54.3207      1.00000
     10     -43.5665      1.00000
     11     -43.5644      1.00000
     12     -16.2057      1.00000
     13     -16.0776      1.00000
     14      -9.3647      1.00000
     15      -8.8305      1.00000
     16      -2.7939      1.00000
     17      -2.3059      1.00000
     18      -2.1205      1.00000
     19      -1.9915      1.00000
     20      -1.7113      1.00000
     21      -1.3827      1.00000
     22      -0.7368      1.00000
     23      -0.7020      1.00000
     24      -0.6542      1.00000
     25      -0.3689      1.00000
     26      -0.2988      1.00000
     27      -0.0573      1.00000
     28      -0.0376      1.00000
     29       0.0029      1.00000
     30       0.2754      1.00000
     31       0.5426      1.00000
     32       0.5725      1.00000
     33       0.7885      1.00000
     34       1.2650      1.00000
     35       1.9388      1.00000
     36       2.0193      1.00000
     37       2.3237      1.00000
     38       3.3401      1.00000
     39       3.3958      1.00000
     40       3.5523      1.00000
     41       4.2182      1.00000
     42       4.2851      1.00000
     43       7.5621      0.00000
     44       8.0954      0.00000
     45       9.9522      0.00000
     46      10.5162      0.00000
     47      11.6234      0.00000
     48      12.4889      0.00000
     49      13.2062      0.00000
     50      14.7964      0.00000
     51      14.8326      0.00000
     52      16.3365      0.00000
     53      16.5332      0.00000
     54      16.6619      0.00000
     55      16.9169      0.00000
     56      17.6543      0.00000

[...]

 k-point    52 :       0.5000    0.5000    0.5000
  band No.  band energies     occupation
      1     -56.1095      1.00000
      2     -56.1083      1.00000
      3     -55.8142      1.00000
      4     -54.8155      1.00000
      5     -54.8134      1.00000
      6     -54.4926      1.00000
      7     -54.4722      1.00000
      8     -54.3220      1.00000
      9     -54.3218      1.00000
     10     -43.5653      1.00000
     11     -43.5638      1.00000
     12     -16.0076      1.00000
     13     -15.8189      1.00000
     14      -8.8144      1.00000
     15      -8.6712      1.00000
     16      -3.2559      1.00000
     17      -2.9564      1.00000
     18      -2.5537      1.00000
     19      -2.2507      1.00000
     20      -2.0532      1.00000
     21      -1.6038      1.00000
     22      -1.5014      1.00000
     23      -1.1756      1.00000
     24      -1.1531      1.00000
     25      -0.9438      1.00000
     26      -0.4653      1.00000
     27      -0.2899      1.00000
     28       0.0517      1.00000
     29       0.1035      1.00000
     30       0.4333      1.00000
     31       0.8705      1.00000
     32       0.9304      1.00000
     33       0.9826      1.00000
     34       1.4974      1.00000
     35       1.5556      1.00000
     36       1.9035      1.00000
     37       2.1159      1.00000
     38       3.4870      1.00000
     39       3.5507      1.00000
     40       3.7738      1.00000
     41       4.1016      1.00000
     42       4.2681      1.00000
     43       8.8833      0.00000
     44       9.2908      0.00000
     45       9.4786      0.00000
     46      10.2061      0.00000
     47      11.7584      0.00000
     48      12.6362      0.00000
     49      12.9666      0.00000
     50      13.0242      0.00000
     51      14.4101      0.00000
     52      14.6623      0.00000
     53      15.2146      0.00000
     54      16.3995      0.00000
     55      18.0592      0.00000
     56      18.2705      0.00000
 Fermi energy:         5.0794558584

 spin component 2

[...]

 k-point    52 :       0.5000    0.5000    0.5000
  band No.  band energies     occupation
      1     -49.5224      1.00000
      2     -49.5182      1.00000
      3     -49.4695      1.00000
      4     -49.4490      1.00000
      5     -49.4475      1.00000
      6     -49.4424      1.00000
      7     -49.1637      1.00000
      8     -49.1565      1.00000
      9     -49.1310      1.00000
     10     -43.5717      1.00000
     11     -43.5700      1.00000
     12     -15.5103      1.00000
     13     -15.3279      1.00000
     14      -8.4506      1.00000
     15      -8.3888      1.00000
     16      -2.1477      1.00000
     17      -1.9697      1.00000
     18      -1.4671      1.00000
     19      -0.8314      1.00000
     20      -0.0816      1.00000
     21       0.5543      1.00000
     22       0.8657      1.00000
     23       0.9040      1.00000
     24       1.4863      1.00000
     25       2.0043      1.00000
     26       2.4385      1.00000
     27       2.6383      1.00000
     28       3.4109      1.00000
     29       4.0178      1.00000
     30       4.1217      1.00000
     31       7.3248      0.00000
     32       7.5030      0.00000
     33       7.8116      0.00000
     34       8.2102      0.00000
     35       8.3746      0.00000
     36       8.5868      0.00000
     37       8.8161      0.00000
     38       9.0167      0.00000
     39       9.0553      0.00000
     40       9.3891      0.00000
     41       9.4535      0.00000
     42       9.6234      0.00000
     43      10.6797      0.00000
     44      10.7738      0.00000
     45      11.0325      0.00000
     46      11.4778      0.00000
     47      12.5250      0.00000
     48      13.4933      0.00000
     49      13.8570      0.00000
     50      14.2953      0.00000
     51      15.3271      0.00000
     52      15.8027      0.00000
     53      15.9100      0.00000
     54      17.0113      0.00000
     55      18.7327      0.00000
     56      18.9919      0.00000

 soft charge-density along one line, spin component           1
         0         1         2         3         4         5         6         7         8         9
 total charge-density along one line

 soft charge-density along one line, spin component           2
         0         1         2         3         4         5         6         7         8         9
 total charge-density along one line

------------------------ aborting loop because EDIFF is reached ----------------------------------------

 total charge

# of ion       s       p       d       tot
    1        2.020   0.064   0.000   2.083
    2        2.020   0.064   0.000   2.083
    3        1.554   3.535   0.000   5.089
    4        1.554   3.535   0.000   5.089
    5        1.306   2.460   0.000   3.766
    6        1.308   2.461   0.000   3.769
    7        0.257   6.252   5.905  12.415
    8        0.257   6.252   5.905  12.415
    9        0.256   6.254   5.920  12.430
tot         10.533  30.876  17.730  59.139

 magnetization (x)

[...]

  FORCE on cell =-STRESS in cart. coord.  units (eV):
  Direction    XX          YY          ZZ          XY          YZ          ZX
  Alpha Z   227.58724   227.58724   227.58724
  Ewald   -1417.13536 -2025.91385 -2056.92616    -0.14370  -427.29565    -0.12505
  Hartree  1300.98638   850.67200   825.17105    -0.06466  -351.30280    -0.05167
  E(xc)    -303.50458  -303.93732  -303.94000    -0.00029    -0.03575    -0.00030
  Local   -1029.10712    -0.24688    55.87622     0.19519   773.59560     0.16149
  n-local   287.07192   285.95498   285.81767     0.00047    -1.99460     0.00083
  augment   385.12147   404.43763   404.71070     0.00892     3.52049     0.01044
  Kinetic   907.70761   928.45442   928.82786     0.00807     5.01012     0.00965
  Fock     -358.59633  -366.97912  -367.08868    -0.00353    -1.42370    -0.00407
  Total       0.13121     0.02910     0.03590     0.00046     0.07371     0.00132
  in kB       1.74609     0.38720     0.47767     0.00616     0.98087     0.01761

 VOLUME and BASIS-vectors are now :
  energy-cutoff  :      520.00
  volume of cell :      120.40
      direct lattice vectors                 reciprocal lattice vectors
     3.793019890  0.000107480  0.000066390     0.263642172 -0.000007022 -0.000003988
     0.000150690  5.634369740  0.041675340    -0.000005118  0.177444206  0.005128565
     0.000080870 -0.162793310  5.632517400    -0.000003070 -0.001312920  0.177502561

  length of vectors
     3.793019892  5.634523868  5.634869469     0.263642172  0.177518305  0.177507417

 FORCES acting on ions:
    Electron-Ion                     Ewald-Force                    Non-Local-Force
   -.546E-01 -.105E+02 0.158E+02   0.525E-01 0.109E+02 -.160E+02   0.307E-02 -.483E+00 0.211E+00
   -.543E-01 0.161E+02 -.987E+01   0.523E-01 -.164E+02 0.104E+02   0.298E-02 0.229E+00 -.475E+00
   -.849E-01 -.498E+02 0.749E+02   0.909E-01 0.520E+02 -.783E+02   0.261E-03 -.190E+01 0.298E+01
   -.570E-01 0.767E+02 -.470E+02   0.614E-01 -.802E+02 0.491E+02   0.113E-02 0.305E+01 -.179E+01
   -.873E-01 -.160E+02 -.165E+02   0.954E-01 0.152E+02 0.157E+02   -.963E-02 0.737E+00 0.764E+00
   -.462E-01 -.163E+02 -.170E+02   0.513E-01 0.173E+02 0.180E+02   -.607E-02 -.905E+00 -.939E+00
   0.244E+00 0.841E+02 -.634E+02   -.234E+00 -.855E+02 0.643E+02   -.143E-01 0.127E+01 -.850E+00
   0.289E+00 -.664E+02 0.816E+02   -.277E+00 0.674E+02 -.830E+02   -.169E-01 -.890E+00 0.124E+01
   -.115E+00 -.172E+02 -.178E+02   0.107E+00 0.193E+02 0.200E+02   0.449E-02 -.196E+01 -.204E+01
   0.342E-01 0.840E+00 0.873E+00   -.626E-14 0.284E-13 0.000E+00   -.349E-01 -.857E+00 -.891E+00

 POSITION                                       TOTAL-FORCE (eV/Angst)
      1.20545      2.87728      5.39038        -0.000430      0.000975     -0.017260
      1.20548      5.28329      3.07006        -0.000544     -0.017142     -0.000039
      1.20647      1.22727      4.23616         0.006890      0.017424      0.015064
      1.20657      4.18883      1.37928         0.006244      0.013958      0.017748
      3.10507      1.29254      1.34057        -0.001228     -0.012587     -0.013582
      3.10292      4.10121      4.25204        -0.000406     -0.011524     -0.012117
      3.10350      3.73854      1.75094        -0.004125      0.015799     -0.003616
      3.10345      1.61471      3.79938        -0.004542     -0.004466      0.016215
      1.20907      0.18096      0.18704        -0.001858     -0.002438     -0.002414
    total drift:                               -0.008678      0.009580      0.009455

  FREE ENERGIE OF THE ION-ELECTRON SYSTEM (eV)
  free  energy   TOTEN  =       -75.50941966 eV

  energy  without entropy=      -75.50941966  energy(sigma->0) =      -75.50941966

 reached required accuracy - stopping structural energy minimisation
 writing wavefunctions

 total charge

[...]

 magnetization (x)

# of ion       s       p       d       tot
    1       -0.001  -0.001   0.000  -0.002
    2       -0.001  -0.001   0.000  -0.002
    3        0.012   0.148   0.000   0.160
    4        0.012   0.148   0.000   0.160
    5        0.022   0.114   0.000   0.136
    6        0.018   0.099   0.000   0.117
    7        0.034   0.037   3.564   3.634
    8        0.034   0.037   3.564   3.634
    9        0.034   0.030   3.566   3.630
tot          0.165   0.609  10.694  11.467