 vasp.6.2.0 18Jan21 (build Jan 29 2021 15:03:46) complex

 executed on             LinuxIFC date 2021.03.30  09:14:45

 INCAR:
   AEXX = 0.25
   ALGO = all
   EDIFF = 1.1e-05
   ENCUT = 520
   GGA = pe
   HFSCREEN = 0.207
   ISIF = 3
   ISMEAR = 0
   ISPIN = 2
   KPAR = 26
   LASPH = .TRUE.
   LHFCALC = .TRUE.
   LMAXFOCK = 4
   LORBIT = 11
   LREAL = .FALSE.
   LVHAR = .TRUE.
   LWAVE = .TRUE.
   MAGMOM = 0.6 0.6 0.6 0.6 0.6 0.6 0.6 5 5 5 5
   NCORE = 1
   NEDOS = 2000
   NELM = 200
   NELMIN = 4
   NWRITE = 1
   PREC = accurate
   PRECFOCK = fast
   SIGMA = 0.05
   TIME = 0.3

 POTCAR:    PAW_PBE Li_sv 10Sep2004
 POTCAR:    PAW_PBE O 08Apr2002
 POTCAR:    PAW_PBE S 06Sep2000
 POTCAR:    PAW_PBE Fe_pv 02Aug2007
|           W    W    AA    RRRRR   N    N  II  N    N   GGGG   !!!           |
|           W    W   A  A   R    R  NN   N  II  NN   N  G    G  !!!           |
|           W    W  A    A  R    R  N N  N  II  N N  N  G       !!!           |
|           W WW W  AAAAAA  RRRRR   N  N N  II  N  N N  G  GGG   !            |
|           WW  WW  A    A  R   R   N   NN  II  N   NN  G    G                |
|           W    W  A    A  R    R  N    N  II  N    N   GGGG   !!!           |
|     For optimal performance we recommend to set                             |
|       NCORE = 2 up to number-of-cores-per-socket                            |
|     This setting can greatly improve the performance of VASP for DFT.       |
|     The default, NCORE=1 might be grossly inefficient on modern             |
|     multi-core architectures or massively parallel machines. Do your        |
|     Unfortunately you need to use the default for GW and RPA                |
|     calculations (for HF NCORE is supported but not extensively tested      |
|     yet).                                                                   |

 POTCAR:    PAW_PBE Li_sv 10Sep2004

 POTCAR:    PAW_PBE O 08Apr2002

 POTCAR:    PAW_PBE S 06Sep2000

 POTCAR:    PAW_PBE Fe_pv 02Aug2007

  PAW_PBE Li_sv 10Sep2004               :
  PAW_PBE O 08Apr2002                   :
  PAW_PBE S 06Sep2000                   :
  PAW_PBE Fe_pv 02Aug2007               :

 POSCAR: # Compound: Li2O2S3Fe4. Old comment: Fe4
  positions in direct lattice
 exchange correlation table for  LEXCH =        8
   RHO(1)=    0.500       N(1)  =     2000
   RHO(2)=  100.500       N(2)  =     4000

 ion  position               nearest neighbor table
   1  0.611  0.727  0.835-   4 1.96   4 1.98   7 2.56   7 2.56
   2  0.273  0.389  0.165-   3 1.96   3 1.98   7 2.56   7 2.56
   3  0.791  0.406  0.197-   2 1.96   2 1.98   8 1.98  11 1.99  11 1.99
   4  0.594  0.209  0.803-   1 1.96   1 1.98   9 1.98  10 1.99  10 1.99
   5  0.009  0.615  0.629-   8 2.39   9 2.61   9 2.70
   6  0.385  0.991  0.371-   9 2.39   8 2.61   8 2.70
   7  0.192  0.808  0.000-  11 2.50  10 2.50  11 2.50  10 2.50   1 2.56   2 2.56   1 2.56   2 2.56

   8  0.856  0.519  0.393-   3 1.98   5 2.39   6 2.61   6 2.70
   9  0.481  0.144  0.607-   4 1.98   6 2.39   5 2.61   5 2.70
  10  0.114  0.229  0.844-   4 1.99   4 1.99   7 2.50   7 2.50
  11  0.771  0.886  0.156-   3 1.99   3 1.99   7 2.50   7 2.50

  Warning from LATTYP: Got some problem with cell dimensions!
  Tried to take original basis but could not verify dimensions!
  LATTYP: Found a base centered monoclinic cell.
 ALAT       =     5.4908396397
 B/A-ratio  =     1.0042851661
 C/A-ratio  =     1.9026734951
 COS(beta)  =    -0.2610706172

  Lattice vectors:

 A1 = (  -3.8908625000,   0.0019891900,  -0.0241006900)
 A2 = (   0.0147980200,  -3.8908348700,  -0.0241006900)
 A3 = (   1.8628681400,   1.8690108900,  10.1085150500)

Analysis of symmetry for initial positions (statically):
 Subroutine PRICEL returns:
 Original cell was already a primitive cell.

 Routine SETGRP: Setting up the symmetry group for a
 base centered monoclinic supercell.

 Subroutine GETGRP returns: Found  2 space group operations
 (whereof  2 operations were pure point group operations)
 out of a pool of  4 trial point group operations.

The static configuration has the point symmetry C_2 .

Analysis of symmetry for dynamics (positions and initial velocities):
 Subroutine PRICEL returns:
 Original cell was already a primitive cell.

[...]

The dynamic configuration has the point symmetry C_2 .

Analysis of structural, dynamic, and magnetic symmetry:
 Subroutine PRICEL returns:
 Original cell was already a primitive cell.

 Routine SETGRP: Setting up the symmetry group for a
 base centered monoclinic supercell.

 Subroutine GETGRP returns: Found  2 space group operations
 (whereof  2 operations were pure point group operations)
 out of a pool of  4 trial point group operations.

The overall configuration has the point symmetry C_2 .

 Subroutine INISYM returns: Found  2 space group operations
 (whereof  2 operations are pure point group operations),
 and found     1 'primitive' translations

                                     Primitive cell

  volume of cell :     152.6788

  direct lattice vectors                    reciprocal lattice vectors
     3.890862500 -0.001989190  0.024100690     0.256693761  0.000657284  0.051499641
    -0.014798020  3.890834870  0.024100690    -0.000187764  0.256694534  0.051499641
    -2.013196340 -2.019834790 10.060313670    -0.000614491 -0.000616517  0.099153732

  length of vectors
     3.890937650  3.890937652 10.456701355     0.261809725  0.261809725  0.099157553

  position of ions in fractional coordinates (direct lattice)
     0.610596360  0.727263430  0.834917550
     0.272736570  0.389403640  0.165082450
     0.790748700  0.406420100  0.196791040
     0.593579900  0.209251300  0.803208960
     0.009296960  0.615403750  0.628992810
     0.384596250  0.990703040  0.371007190
     0.192227880  0.807772120  1.000000000
     0.856387110  0.519173400  0.392910180
     0.480826600  0.143612890  0.607089820
     0.113532990  0.228925310  0.843918120
     0.771074690  0.886467010  0.156081880

  ion indices of the primitive-cell ions
   primitive index   ion index
                 1           1
                 2           2
                 3           3
                 4           4
                 5           5
                 6           6
                 7           7
                 8           8
                 9           9
                10          10
                11          11

 KPOINTS: # No comment

Automatic generation of k-mesh.
 Grid dimensions read from file:
 generate k-points for:    6    6    2

 Generating k-lattice:

  Cartesian coordinates                     Fractional coordinates (reciprocal lattice)
     0.042782294  0.000109547  0.008583274     0.166666667  0.000000000  0.000000000
    -0.000031294  0.042782422  0.008583274    -0.000000000  0.166666667  0.000000000
    -0.000307245 -0.000308259  0.049576866     0.000000000 -0.000000000  0.500000000

  Length of vectors
     0.043634954  0.043634954  0.049578776

  Shift w.r.t. Gamma in fractional coordinates (k-lattice)
     0.000000000  0.000000000  0.000000000

 Subroutine IBZKPT returns following result:

 Found     26 irreducible k-points:

 Following reciprocal coordinates:
            Coordinates               Weight
  0.000000  0.000000  0.000000      1.000000
  0.166667 -0.000000  0.000000      4.000000
  0.333333  0.000000 -0.000000      4.000000
  0.500000 -0.000000  0.000000      2.000000
  0.166667  0.166667 -0.000000      2.000000
  0.333333  0.166667  0.000000      4.000000
  0.500000  0.166667  0.000000      4.000000
 -0.333333  0.166667 -0.000000      4.000000
 -0.166667  0.166667  0.000000      2.000000
  0.333333  0.333333 -0.000000      2.000000
  0.500000  0.333333 -0.000000      4.000000
 -0.333333  0.333333  0.000000      2.000000
  0.500000  0.500000 -0.000000      1.000000
 -0.000000  0.000000  0.500000      1.000000
  0.166667  0.000000  0.500000      4.000000
  0.333333 -0.000000  0.500000      4.000000
  0.500000  0.000000  0.500000      2.000000
  0.166667  0.166667  0.500000      2.000000
  0.333333  0.166667  0.500000      4.000000
  0.500000  0.166667  0.500000      4.000000
 -0.333333  0.166667  0.500000      4.000000
 -0.166667  0.166667  0.500000      2.000000
  0.333333  0.333333  0.500000      2.000000
  0.500000  0.333333  0.500000      4.000000
 -0.333333  0.333333  0.500000      2.000000
  0.500000  0.500000  0.500000      1.000000

 Following cartesian coordinates:
            Coordinates               Weight
  0.000000  0.000000  0.000000      1.000000
  0.042782  0.000110  0.008583      4.000000
  0.085565  0.000219  0.017167      4.000000
  0.128347  0.000329  0.025750      2.000000
  0.042751  0.042892  0.017167      2.000000
  0.085533  0.043002  0.025750      4.000000
  0.128316  0.043111  0.034333      4.000000
 -0.085596  0.042563 -0.008583      4.000000
 -0.042814  0.042673 -0.000000      2.000000
  0.085502  0.085784  0.034333      2.000000
  0.128284  0.085893  0.042916      4.000000
 -0.085627  0.085346 -0.000000      2.000000
  0.128253  0.128676  0.051500      1.000000
 -0.000307 -0.000308  0.049577      1.000000
  0.042475 -0.000199  0.058160      4.000000
  0.085257 -0.000089  0.066743      4.000000
  0.128040  0.000020  0.075327      2.000000
  0.042444  0.042584  0.066743      2.000000
  0.085226  0.042693  0.075327      4.000000
  0.128008  0.042803  0.083910      4.000000
 -0.085903  0.042255  0.040994      4.000000
 -0.043121  0.042365  0.049577      2.000000
  0.085195  0.085476  0.083910      2.000000
  0.127977  0.085585  0.092493      4.000000
 -0.085934  0.085037  0.049577      2.000000
  0.127946  0.128368  0.101077      1.000000

 Subroutine IBZKPT_HF returns following result:

 Found     72 k-points in 1st BZ
 the following     72 k-points will be used (e.g. in the exchange kernel)
 Following reciprocal coordinates:   # in IRBZ
  0.000000  0.000000  0.000000    0.01388889   1 t-inv F
  0.166667 -0.000000  0.000000    0.01388889   2 t-inv F
  0.333333  0.000000 -0.000000    0.01388889   3 t-inv F
  0.500000 -0.000000  0.000000    0.01388889   4 t-inv F
  0.166667  0.166667 -0.000000    0.01388889   5 t-inv F
  0.333333  0.166667  0.000000    0.01388889   6 t-inv F
  0.500000  0.166667  0.000000    0.01388889   7 t-inv F
 -0.333333  0.166667 -0.000000    0.01388889   8 t-inv F
 -0.166667  0.166667  0.000000    0.01388889   9 t-inv F
  0.333333  0.333333 -0.000000    0.01388889  10 t-inv F
  0.500000  0.333333 -0.000000    0.01388889  11 t-inv F
 -0.333333  0.333333  0.000000    0.01388889  12 t-inv F
  0.500000  0.500000 -0.000000    0.01388889  13 t-inv F
 -0.000000  0.000000  0.500000    0.01388889  14 t-inv F
  0.166667  0.000000  0.500000    0.01388889  15 t-inv F
  0.333333 -0.000000  0.500000    0.01388889  16 t-inv F
  0.500000  0.000000  0.500000    0.01388889  17 t-inv F
  0.166667  0.166667  0.500000    0.01388889  18 t-inv F
  0.333333  0.166667  0.500000    0.01388889  19 t-inv F
  0.500000  0.166667  0.500000    0.01388889  20 t-inv F
 -0.333333  0.166667  0.500000    0.01388889  21 t-inv F
 -0.166667  0.166667  0.500000    0.01388889  22 t-inv F
  0.333333  0.333333  0.500000    0.01388889  23 t-inv F
  0.500000  0.333333  0.500000    0.01388889  24 t-inv F
[...]
 for species   2 augmentation radius   0.974 (default was   0.722)
       energy cutoff for augmentation   2080.0
 for species   3 augmentation radius   1.309 (default was   0.970)
       energy cutoff for augmentation   2080.0
 for species   4 augmentation radius   1.283 (default was   0.950)
       energy cutoff for augmentation   2080.0
 Maximum index for augmentation-charges in exchange          667
  SETUP_FOCK is finished

 Broyden mixing: mesh for mixing (old mesh)
   NGX = 15   NGY = 15   NGZ = 39
  (NGX  = 60   NGY  = 60   NGZ  =160)
  gives a total of   8775 points

 charge density for first step will be calculated from the start-wavefunctions

 Maximum index for augmentation-charges         3600 (set IRDMAX)

 initial charge from wavefunction
 First call to EWALD:  gamma=   0.332
 Maximum number of real-space cells 4x 4x 2
 Maximum number of reciprocal cells 2x 2x 5

--------------------------------------- Iteration      1(   1)  ---------------------------------------

 eigenvalue-minimisations  :     0
 total energy-change (2. order) :-0.9383841E+02  (-0.3642042E-06)
 number of electron      91.9999997 magnetization      15.9999999
 augmentation part       34.8156895 magnetization      10.6875769

 Free energy of the ion-electron system (eV)
  alpha Z        PSCENC =       298.43317379
  Ewald energy   TEWEN  =     -7288.22036244
  -Hartree energ DENC   =     -3755.42247021
  -exchange      EXHF   =       268.85084858
  -V(xc)+E(xc)   XCENC  =       307.47700155
  PAW double counting   =     12219.12804052   -12563.82491641
  entropy T*S    EENTRO =        -0.00000000
  eigenvalues    EBANDS =     -1475.55229862
  atomic energy  EATOM  =     11895.29256912
  free energy    TOTEN  =       -93.83841412 eV

  energy without entropy =      -93.83841412  energy(sigma->0) =      -93.83841412
  exchange ACFDT corr.  =        -0.00000000  see jH, gK, PRB 81, 115126

[...]

 eigenvalue-minimisations  :     0
 total energy-change (2. order) : 0.1121887E-05  (-0.1859154E-05)
 number of electron      91.9999997 magnetization      15.9999999
 augmentation part       34.8158314 magnetization      10.6876220

[...]

--------------------------------------- Iteration      1(   4)  ---------------------------------------

 eigenvalue-minimisations  :     0
 total energy-change (2. order) :-0.1651119E-05  (-0.3328464E-06)
 number of electron      91.9999997 magnetization      15.9999999
 augmentation part       34.8157146 magnetization      10.6875851

 Free energy of the ion-electron system (eV)
  alpha Z        PSCENC =       298.43317379
  Ewald energy   TEWEN  =     -7288.22036244
  -Hartree energ DENC   =     -3755.44745530
  -exchange      EXHF   =       268.85090537
  -V(xc)+E(xc)   XCENC  =       307.47765517
  PAW double counting   =     12219.26566059   -12563.96723811
  entropy T*S    EENTRO =        -0.00000000
  eigenvalues    EBANDS =     -1475.52355254
  atomic energy  EATOM  =     11895.29256912
  free energy    TOTEN  =       -93.83841499 eV

  energy without entropy =      -93.83841499  energy(sigma->0) =      -93.83841499
  exchange ACFDT corr.  =        -0.00000000  see jH, gK, PRB 81, 115126

  average scaling for gradient   1.0172

 average (electrostatic) potential at core
  the test charge radii are     0.7079  0.7215  0.9698  0.9500
  (the norm of the test charge is              1.0000)
       1 -53.0256       2 -53.0256       3 -63.4044       4 -63.4044       5 -81.7275
       6 -81.7275       7 -81.8437       8 -71.0343       9 -71.0343      10 -71.0871
      11 -71.0871

 E-fermi :   4.9230     XC(G=0):  -8.7738     alpha+bet :-12.1881

 Fermi energy:         4.9230160087

 spin component 1

 k-point     1 :       0.0000    0.0000    0.0000
  band No.  band energies     occupation
      1     -55.7402      1.00000
      2     -55.7402      1.00000
      3     -55.7097      1.00000
      4     -55.7072      1.00000
      5     -54.3320      1.00000
      6     -54.3320      1.00000
      7     -54.1859      1.00000
      8     -54.1857      1.00000
      9     -54.1737      1.00000
     10     -54.1732      1.00000
     11     -54.1588      1.00000
     12     -54.1585      1.00000
     13     -43.2458      1.00000
     14     -43.2456      1.00000
     15     -15.8411      1.00000
     16     -15.8107      1.00000
     17      -9.4029      1.00000
     18      -9.1512      1.00000
     19      -8.6476      1.00000
     20      -2.1051      1.00000
     21      -1.7864      1.00000
     22      -1.7786      1.00000
     23      -1.7346      1.00000
     24      -1.0772      1.00000
     25      -1.0047      1.00000
     26      -0.9826      1.00000
     27      -0.7443      1.00000
     28      -0.4032      1.00000
     29      -0.4030      1.00000
     30      -0.2315      1.00000
     31      -0.1940      1.00000
     32      -0.0338      1.00000
     33      -0.0232      1.00000
     34       0.2116      1.00000
     35       0.4061      1.00000
     36       0.6268      1.00000
     37       0.6619      1.00000
     38       0.6824      1.00000
     39       0.7967      1.00000
     40       1.0925      1.00000
     41       1.1610      1.00000
     42       1.1948      1.00000
     43       1.2928      1.00000
     44       1.4443      1.00000
     45       1.9564      1.00000
     46       2.0107      1.00000
     47       2.7607      1.00000
     48       2.8698      1.00000
     49       2.9385      1.00000
     50       3.6247      1.00000
     51       3.6420      1.00000
     52       3.6887      1.00000
     53       4.0952      1.00000
     54       4.1030      1.00000
     55       8.3538      0.00000
     56       9.3300      0.00000
     57      10.6984      0.00000
     58      10.7709      0.00000
     59      11.3413      0.00000
     60      11.9671      0.00000
     61      12.4611      0.00000
     62      12.6587      0.00000
     63      12.7401      0.00000
     64      13.2670      0.00000
     65      15.4851      0.00000
     66      15.5729      0.00000
     67      15.7412      0.00000
     68      15.8356      0.00000

[...]

 k-point    26 :       0.5000    0.5000    0.5000
  band No.  band energies     occupation
      1     -55.7436      1.00000
      2     -55.7435      1.00000
      3     -55.7066      1.00000
      4     -55.7064      1.00000
      5     -54.3331      1.00000
      6     -54.3328      1.00000
      7     -54.1872      1.00000
      8     -54.1871      1.00000
      9     -54.1756      1.00000
     10     -54.1725      1.00000
     11     -54.1595      1.00000
     12     -54.1565      1.00000
     13     -43.2441      1.00000
     14     -43.2441      1.00000
     15     -15.6166      1.00000
     16     -15.6035      1.00000
     17      -8.7085      1.00000
     18      -8.4286      1.00000
     19      -8.3845      1.00000
     20      -2.9745      1.00000
     21      -2.9582      1.00000
     22      -2.0565      1.00000
     23      -2.0297      1.00000
     24      -1.8741      1.00000
     25      -1.6504      1.00000
     26      -0.8969      1.00000
     27      -0.7902      1.00000
     28      -0.6020      1.00000
     29      -0.5393      1.00000
     30      -0.4331      1.00000
     31      -0.3931      1.00000
     32      -0.2316      1.00000
     33      -0.2243      1.00000
     34       0.2808      1.00000
     35       0.3176      1.00000
     36       0.4473      1.00000
     37       0.5474      1.00000
     38       0.7999      1.00000
     39       0.9065      1.00000
     40       1.0823      1.00000
     41       1.4438      1.00000
     42       1.5072      1.00000
     43       1.6040      1.00000
     44       1.6921      1.00000
     45       1.7247      1.00000
     46       1.9040      1.00000
     47       1.9470      1.00000
     48       2.0234      1.00000
     49       2.4379      1.00000
     50       2.5337      1.00000
     51       2.8524      1.00000
     52       3.4032      1.00000
     53       3.7400      1.00000
     54       3.9963      1.00000
     55       8.9116      0.00000
     56       9.8284      0.00000
     57      10.6494      0.00000
     58      11.6739      0.00000
     59      12.0121      0.00000
     60      12.1706      0.00000
     61      12.4963      0.00000
     62      12.8638      0.00000
     63      14.0376      0.00000
     64      14.3741      0.00000
     65      14.5055      0.00000
     66      16.0065      0.00000
     67      16.0888      0.00000
     68      16.2717      0.00000
 Fermi energy:         4.9230160087

 spin component 2

[...]

 k-point    26 :       0.5000    0.5000    0.5000
  band No.  band energies     occupation
      1     -49.1170      1.00000
      2     -49.1162      1.00000
      3     -49.0631      1.00000
      4     -49.0631      1.00000
      5     -49.0587      1.00000
      6     -49.0585      1.00000
      7     -49.0382      1.00000
      8     -49.0382      1.00000
      9     -49.0239      1.00000
     10     -49.0210      1.00000
     11     -49.0187      1.00000
     12     -49.0157      1.00000
     13     -43.2432      1.00000
     14     -43.2431      1.00000
     15     -15.0899      1.00000
     16     -15.0758      1.00000
     17      -8.3802      1.00000
     18      -8.0108      1.00000
     19      -7.9571      1.00000
     20      -1.6310      1.00000
     21      -1.5870      1.00000
     22      -0.5463      1.00000
     23      -0.3775      1.00000
     24      -0.0669      1.00000
     25       0.1862      1.00000
     26       0.7309      1.00000
     27       0.8021      1.00000
     28       0.8476      1.00000
     29       1.1311      1.00000
     30       1.7393      1.00000
     31       1.7700      1.00000
     32       1.9641      1.00000
     33       2.3611      1.00000
     34       2.8374      1.00000
     35       4.0730      1.00000
     36       4.1739      1.00000
     37       4.2155      1.00000
     38       4.2256      1.00000
     39       6.7349      0.00000
     40       7.3057      0.00000
     41       7.4464      0.00000
     42       7.6676      0.00000
     43       8.2572      0.00000
     44       8.4919      0.00000
     45       8.8853      0.00000
     46       8.8984      0.00000
     47       8.9748      0.00000
     48       9.0955      0.00000
     49       9.1618      0.00000
     50       9.3414      0.00000
     51       9.3860      0.00000
     52       9.4550      0.00000
     53       9.6972      0.00000
     54       9.9073      0.00000
     55      10.7355      0.00000
     56      11.6024      0.00000
     57      11.7914      0.00000
     58      13.4039      0.00000
     59      13.5702      0.00000
     60      13.6162      0.00000
     61      13.8425      0.00000
     62      14.1069      0.00000
     63      14.8206      0.00000
     64      14.9178      0.00000
     65      15.4108      0.00000
     66      16.4447      0.00000
     67      16.8003      0.00000
     68      16.9057      0.00000

 soft charge-density along one line, spin component           1
         0         1         2         3         4         5         6         7         8         9
 total charge-density along one line

 soft charge-density along one line, spin component           2
         0         1         2         3         4         5         6         7         8         9
 total charge-density along one line

------------------------ aborting loop because EDIFF is reached ----------------------------------------

 total charge

# of ion       s       p       d       tot
    1        2.020   0.065   0.000   2.085
    2        2.020   0.065   0.000   2.085
    3        1.556   3.541   0.000   5.097
    4        1.556   3.541   0.000   5.097
    5        1.314   2.443   0.000   3.757
    6        1.314   2.443   0.000   3.757
    7        1.301   2.499   0.000   3.799
    8        0.241   6.217   5.899  12.358
    9        0.241   6.217   5.899  12.358
   10        0.253   6.250   5.914  12.417
   11        0.253   6.250   5.914  12.417
tot         12.072  39.530  23.626  75.228

 magnetization (x)

[...]

  FORCE on cell =-STRESS in cart. coord.  units (eV):
  Direction    XX          YY          ZZ          XY          YZ          ZX
  Alpha Z   298.43317   298.43317   298.43317
  Ewald   -2476.14650 -2476.18114 -2335.90059    -5.26065   -41.74265   -41.60546
  Hartree  1234.78544  1234.77130  1285.87464    -2.00382   -30.45151   -30.35139
  E(xc)    -388.32674  -388.32677  -388.26009    -0.00544    -0.01245    -0.01241
  Local    -275.34791  -275.30111  -448.84708     6.77388    71.40904    71.17425
  n-local   431.64418   434.87256   437.34708    -0.15040    -0.02146     0.01898
  augment   513.24245   513.24312   502.04436     0.25385     0.44207     0.43976
  Kinetic  1141.58223  1152.15103  1130.66006     0.50146     0.51349     0.56255
  Fock     -487.53216  -486.01113  -481.31661    -0.14776    -0.17287    -0.19084
  Total      -0.00735    -0.00746     0.03494    -0.01591    -0.00001    -0.00091
  in kB      -0.07713    -0.07823     0.36667    -0.16691    -0.00014    -0.00958

 VOLUME and BASIS-vectors are now :
  energy-cutoff  :      520.00
  volume of cell :      152.68
      direct lattice vectors                 reciprocal lattice vectors
     3.890862500 -0.001989190  0.024100690     0.256693761  0.000657284  0.051499641
    -0.014798020  3.890834870  0.024100690    -0.000187764  0.256694534  0.051499641
    -2.013196340 -2.019834790 10.060313670    -0.000614491 -0.000616517  0.099153732

  length of vectors
     3.890937650  3.890937652 10.456701355     0.261809725  0.261809725  0.099157553

 FORCES acting on ions:
    Electron-Ion                     Ewald-Force                    Non-Local-Force
   -.177E+00 -.956E+00 -.362E+02   0.188E+00 0.105E+01 0.361E+02   -.139E-01 -.101E+00 0.971E-01
   0.956E+00 0.180E+00 0.362E+02   -.105E+01 -.191E+00 -.361E+02   0.101E+00 0.142E-01 -.971E-01
   -.123E+02 0.326E+01 0.131E+03   0.128E+02 -.338E+01 -.136E+03   -.475E+00 0.106E+00 0.444E+01
   -.330E+01 0.123E+02 -.131E+03   0.343E+01 -.128E+02 0.136E+03   -.108E+00 0.475E+00 -.444E+01
   0.492E+01 -.223E+02 -.312E+02   -.501E+01 0.225E+02 0.316E+02   0.945E-01 -.220E+00 -.287E+00
   0.223E+02 -.484E+01 0.312E+02   -.225E+02 0.494E+01 -.316E+02   0.220E+00 -.938E-01 0.287E+00
   -.163E-01 0.163E-01 -.243E-05   0.252E-01 -.251E-01 -.156E-06   -.742E-02 0.740E-02 0.290E-16
   -.643E+01 0.287E+01 -.195E+03   0.509E+01 -.235E+01 0.192E+03   0.122E+01 -.475E+00 0.219E+01
   -.289E+01 0.642E+01 0.195E+03   0.237E+01 -.508E+01 -.192E+03   0.479E+00 -.122E+01 -.219E+01
   0.480E+01 0.958E+01 -.209E+03   -.492E+01 -.958E+01 0.211E+03   0.111E+00 0.530E-02 -.179E+01
   -.956E+01 -.483E+01 0.209E+03   0.956E+01 0.495E+01 -.211E+03   -.494E-02 -.111E+00 0.179E+01
   -.172E+01 0.172E+01 -.321E-05   -.142E-13 -.187E-13 -.853E-13   0.162E+01 -.162E+01 0.111E-14

 POSITION                                       TOTAL-FORCE (eV/Angst)
      0.68413      1.14205      8.43178         0.001828      0.002364     -0.021081
      0.72307      1.18112      1.67674        -0.002358     -0.001835      0.021081
      2.67450      1.18226      2.00863         0.006251      0.001837      0.009983
      0.68942     -0.80937      8.09988        -0.001816     -0.006257     -0.009983
     -1.23922      1.12395      6.34292         0.005627     -0.009512      0.024272
      0.73484      3.10452      3.76559         0.009531     -0.005596     -0.024272
      0.73598      3.14253      0.02410         0.000382     -0.000381     -0.000000
      2.53340      1.22470      3.98595        -0.005526      0.006140      0.005971
      0.64651     -0.66840      6.12256        -0.006158      0.005505     -0.005971
     -1.26062     -0.81409      8.49833         0.000318      0.008080     -0.004646
      2.67280      3.13230      1.61018        -0.008079     -0.000344      0.004646
    total drift:                                0.001274     -0.001313     -0.000003

  FREE ENERGIE OF THE ION-ELECTRON SYSTEM (eV)
  free  energy   TOTEN  =       -93.83841499 eV

  energy  without entropy=      -93.83841499  energy(sigma->0) =      -93.83841499

 writing wavefunctions

 total charge

[...]

 magnetization (x)

# of ion       s       p       d       tot
    1       -0.000   0.001   0.000   0.001
    2       -0.000   0.001   0.000   0.001
    3        0.014   0.160   0.000   0.174
    4        0.014   0.160   0.000   0.174
    5        0.023   0.122   0.000   0.146
    6        0.023   0.122   0.000   0.146
    7        0.019   0.099   0.000   0.119
    8        0.041   0.026   3.567   3.634
    9        0.041   0.026   3.567   3.634
   10        0.032   0.029   3.572   3.633
   11        0.032   0.029   3.572   3.633
tot          0.239   0.774  14.280  15.293