 vasp.5.4.4.18Apr17-6-g9f103f2a35 (build Oct 25 2017 14:42:18) complex

 executed on             LinuxIFC date 2021.06.15  10:09:05

 INCAR:
 POTCAR:    PAW_PBE Li_sv 10Sep2004
 POTCAR:    PAW_PBE Fe_pv 02Aug2007
 POTCAR:    PAW_PBE S 06Sep2000
 POTCAR:    PAW_PBE O 08Apr2002

 POTCAR:    PAW_PBE Li_sv 10Sep2004

 POTCAR:    PAW_PBE Fe_pv 02Aug2007

 POTCAR:    PAW_PBE S 06Sep2000

 POTCAR:    PAW_PBE O 08Apr2002

  PAW_PBE Li_sv 10Sep2004               :
  PAW_PBE Fe_pv 02Aug2007               :
  PAW_PBE S 06Sep2000                   :
  PAW_PBE O 08Apr2002                   :

 POSCAR: # Compound: Li64Fe32S32O32. Old comment:
  positions in direct lattice
 exchange correlation table for  LEXCH =        8
   RHO(1)=    0.500       N(1)  =     2000
   RHO(2)=  100.500       N(2)  =     4000

 ion  position               nearest neighbor table
   1  0.125  0.250  0.468- 133 1.96 149 1.96 105 2.46
   2  0.625  0.250  0.468- 134 1.96 150 1.96 106 2.46
   3  0.125  0.750  0.468- 135 1.96 151 1.96 107 2.46
   4  0.625  0.750  0.468- 136 1.96 152 1.96 108 2.46
   5  0.125  0.250  0.968- 129 1.96 145 1.96 109 2.46
   6  0.625  0.250  0.968- 130 1.96 146 1.96 110 2.46
   7  0.125  0.750  0.968- 131 1.96 147 1.96 111 2.46
   8  0.625  0.750  0.968- 132 1.96 148 1.96 112 2.46
   9  0.125  0.000  0.282- 137 1.96 153 1.96  97 2.47
  10  0.625  0.000  0.282- 138 1.96 154 1.96  98 2.46
  11  0.125  0.500  0.282- 139 1.96 155 1.96  99 2.46
  12  0.625  0.500  0.282- 140 1.96 156 1.96 100 2.46
  13  0.125  0.000  0.782- 141 1.96 157 1.96 101 2.46
  14  0.625  0.000  0.782- 142 1.96 158 1.96 102 2.46
  15  0.125  0.500  0.782- 143 1.96 159 1.96 103 2.46
  16  0.625  0.500  0.782- 144 1.96 160 1.96 104 2.46
  17  0.375  0.250  0.032- 130 1.96 145 1.96 121 2.46
  18  0.875  0.250  0.032- 129 1.96 146 1.96 122 2.46
  19  0.375  0.750  0.032- 132 1.96 147 1.96 123 2.46
  20  0.875  0.750  0.032- 131 1.96 148 1.96 124 2.46
  21  0.375  0.250  0.532- 134 1.96 149 1.96 125 2.46
  22  0.875  0.250  0.532- 133 1.96 150 1.96 126 2.46
  23  0.375  0.750  0.532- 136 1.96 151 1.96 127 2.46
  24  0.875  0.750  0.532- 135 1.96 152 1.96 128 2.46
  25  0.375  0.000  0.218- 138 1.96 153 1.96 113 2.46
  26  0.875  0.000  0.218- 137 1.96 154 1.96 114 2.46
  27  0.375  0.500  0.218- 140 1.96 155 1.96 115 2.46
  28  0.875  0.500  0.218- 139 1.96 156 1.96 116 2.46
  29  0.375  0.000  0.718- 142 1.96 157 1.96 117 2.46
  30  0.875  0.000  0.718- 141 1.96 158 1.96 118 2.46
  31  0.375  0.500  0.718- 144 1.96 159 1.96 119 2.46
  32  0.875  0.500  0.718- 143 1.96 160 1.96 120 2.46
  33  0.269  0.375  0.375- 149 2.01 155 2.01 119 2.56 121 2.56
  34  0.769  0.375  0.375- 150 2.01 156 2.01 120 2.56 122 2.56
  35  0.269  0.875  0.375- 151 2.01 153 2.01 117 2.56 123 2.56
  36  0.769  0.875  0.375- 152 2.01 154 2.01 118 2.56 124 2.56
  37  0.269  0.375  0.875- 145 2.01 159 2.01 115 2.56 125 2.56
  38  0.769  0.375  0.875- 146 2.01 160 2.01 116 2.56 126 2.56
  39  0.269  0.875  0.875- 147 2.01 157 2.01 113 2.56 127 2.56
  40  0.769  0.875  0.875- 148 2.01 158 2.01 114 2.56 128 2.56
  41  0.231  0.125  0.125- 145 2.01 153 2.01 101 2.56 105 2.56
  42  0.731  0.125  0.125- 146 2.01 154 2.01 102 2.56 106 2.56
  43  0.231  0.625  0.125- 147 2.01 155 2.01 103 2.56 107 2.56
  44  0.731  0.625  0.125- 148 2.01 156 2.01 104 2.56 108 2.56
  45  0.231  0.125  0.625- 149 2.01 157 2.01  97 2.56 109 2.56
  46  0.731  0.125  0.625- 150 2.01 158 2.01  98 2.56 110 2.56
  47  0.231  0.625  0.625- 151 2.01 159 2.01  99 2.56 111 2.56
  48  0.731  0.625  0.625- 152 2.01 160 2.01 100 2.56 112 2.56
  49  0.019  0.375  0.125- 129 2.01 139 2.01 103 2.56 105 2.56
  50  0.519  0.375  0.125- 130 2.01 140 2.01 104 2.56 106 2.56
  51  0.019  0.875  0.125- 131 2.01 137 2.01 101 2.56 107 2.56
  52  0.519  0.875  0.125- 132 2.01 138 2.01 102 2.56 108 2.56
  53  0.019  0.375  0.625- 133 2.01 143 2.01  99 2.56 109 2.56
  54  0.519  0.375  0.625- 134 2.01 144 2.01 100 2.56 110 2.56
  55  0.019  0.875  0.625- 135 2.01 141 2.01 111 2.56  97 2.57
  56  0.519  0.875  0.625- 136 2.01 142 2.01  98 2.56 112 2.56
  57  0.481  0.125  0.375- 134 2.01 138 2.01 117 2.56 121 2.56
  58  0.981  0.125  0.375- 133 2.01 137 2.01 118 2.56 122 2.56
  59  0.481  0.625  0.375- 136 2.01 140 2.01 119 2.56 123 2.56
  60  0.981  0.625  0.375- 135 2.01 139 2.01 120 2.56 124 2.56
[...]
 146  0.750  0.250  0.000-   6 1.96  18 1.96  82 2.00  94 2.00  38 2.01  42 2.01
 147  0.250  0.750  0.000-   7 1.96  19 1.96  83 2.00  95 2.00  39 2.01  43 2.01
 148  0.750  0.750  0.000-   8 1.96  20 1.96  84 2.00  96 2.00  40 2.01  44 2.01
 149  0.250  0.250  0.500-   1 1.96  21 1.96  85 2.00  89 2.00  33 2.01  45 2.01
 150  0.750  0.250  0.500-   2 1.96  22 1.96  86 2.00  90 2.00  34 2.01  46 2.01
 151  0.250  0.750  0.500-   3 1.96  23 1.96  87 2.00  91 2.00  35 2.01  47 2.01
 152  0.750  0.750  0.500-   4 1.96  24 1.96  88 2.00  92 2.00  36 2.01  48 2.01
 153  0.250  0.000  0.250-   9 1.96  25 1.96  83 2.00  89 2.00  35 2.01  41 2.01
 154  0.750  0.000  0.250-  10 1.96  26 1.96  84 2.00  90 2.00  36 2.01  42 2.01
 155  0.250  0.500  0.250-  11 1.96  27 1.96  81 2.00  91 2.00  33 2.01  43 2.01
 156  0.750  0.500  0.250-  12 1.96  28 1.96  82 2.00  92 2.00  34 2.01  44 2.01
 157  0.250  0.000  0.750-  13 1.96  29 1.96  87 2.00  93 2.00  39 2.01  45 2.01
 158  0.750  0.000  0.750-  14 1.96  30 1.96  88 2.00  94 2.00  40 2.01  46 2.01
 159  0.250  0.500  0.750-  15 1.96  31 1.96  85 2.00  95 2.00  37 2.01  47 2.01
 160  0.750  0.500  0.750-  16 1.96  32 1.96  86 2.00  96 2.00  38 2.01  48 2.01

  LATTYP: Found a simple orthorhombic cell.
 ALAT       =    11.2102424200
 B/A-ratio  =     1.0059574590
 C/A-ratio  =     1.3759579358

  Lattice vectors:

 A1 = (   0.0000000000,  11.2102424200,   0.0000000000)
 A2 = (   0.0000000000,   0.0000000000, -11.2770269800)
 A3 = ( -15.4248220200,   0.0000000000,   0.0000000000)

Analysis of symmetry for initial positions (statically):
 Subroutine PRICEL returns:
 Original cell was already a primitive cell.

 Routine SETGRP: Setting up the symmetry group for a
 simple orthorhombic supercell.

 Subroutine GETGRP returns: Found  1 space group operations
 (whereof  1 operations were pure point group operations)
 out of a pool of  8 trial point group operations.

The static configuration has the point symmetry C_1 .

Analysis of symmetry for dynamics (positions and initial velocities):
 Subroutine PRICEL returns:
 Original cell was already a primitive cell.

[...]

The dynamic configuration has the point symmetry C_1 .

Analysis of structural, dynamic, and magnetic symmetry:
 Subroutine PRICEL returns:
 Original cell was already a primitive cell.

 Routine SETGRP: Setting up the symmetry group for a
 simple orthorhombic supercell.

 Subroutine GETGRP returns: Found  1 space group operations
 (whereof  1 operations were pure point group operations)
 out of a pool of  8 trial point group operations.

The magnetic configuration has the point symmetry C_1 .

 Subroutine INISYM returns: Found  1 space group operations
 (whereof  1 operations are pure point group operations),
 and found     1 'primitive' translations

 KPOINTS: # No comment

Automatic generation of k-mesh.
Space group operators:
 irot       det(A)        alpha          n_x          n_y          n_z        tau_x        tau_y        tau_z
    1     1.000000     0.000000     1.000000     0.000000     0.000000     0.000000     0.000000     0.000000

 Subroutine IBZKPT returns following result:

 Found     10 irreducible k-points:

 Following reciprocal coordinates:
            Coordinates               Weight
  0.000000  0.000000  0.000000      1.000000
  0.500000  0.000000  0.000000      1.000000
  0.000000  0.333333  0.000000      2.000000
  0.500000  0.333333  0.000000      2.000000
  0.000000  0.000000  0.333333      2.000000
  0.500000  0.000000  0.333333      2.000000
  0.000000  0.333333  0.333333      2.000000
  0.500000  0.333333  0.333333      2.000000
  0.000000 -0.333333  0.333333      2.000000
  0.500000 -0.333333  0.333333      2.000000

 Following cartesian coordinates:
            Coordinates               Weight
  0.000000  0.000000  0.000000      1.000000
  0.032415  0.000000  0.000000      1.000000
  0.000000  0.029735  0.000000      2.000000
  0.032415  0.029735  0.000000      2.000000
  0.000000  0.000000  0.029559      2.000000
  0.032415  0.000000  0.029559      2.000000
  0.000000  0.029735  0.029559      2.000000
  0.032415  0.029735  0.029559      2.000000
  0.000000 -0.029735  0.029559      2.000000
  0.032415 -0.029735  0.029559      2.000000

 SYSTEM =  unknown system
 POSCAR =  # Compound: Li64Fe32S32O32. Old comment:

 Startparameter for this run:
   NWRITE =      1    write-flag & timer
   PREC   = accura    normal or accurate (medium, high low for compatibility)
   ISTART =      0    job   : 0-new  1-cont  2-samecut
   ICHARG =      1    charge: 1-file 2-atom 10-const
   ISPIN  =      2    spin polarized calculation?
   LNONCOLLINEAR =      F non collinear calculations
   LSORBIT =      F    spin-orbit coupling
   INIWAV =      1    electr: 0-lowe 1-rand  2-diag
   LASPH  =      T    aspherical Exc in radial PAW
   METAGGA=      F    non-selfconsistent MetaGGA calc.

 Electronic Relaxation 1
   ENCUT  =  650.0 eV  47.77 Ry    6.91 a.u.  32.07 23.30 23.44*2*pi/ulx,y,z
   ENINI  =  650.0     initial cutoff
   ENAUG  =  628.9 eV  augmentation charge cutoff
   NELM   =    200;   NELMIN=  8; NELMDL=  0     # of ELM steps
   EDIFF  = 0.1E-05   stopping-criterion for ELM
   LREAL  =      F    real-space projection
   NLSPLINE    = F    spline interpolate recip. space projectors
   LCOMPAT=      F    compatible to vasp.4.4
   GGA_COMPAT  = T    GGA compatible to vasp.4.4-vasp.4.6
   LMAXPAW     = -100 max onsite density
   LMAXMIX     =    4 max onsite mixed and CHGCAR
   VOSKOWN=      0    Vosko Wilk Nusair interpolation
   ROPT   =    0.00000   0.00000   0.00000   0.00000
 Ionic relaxation
   EDIFFG = 0.1E-04   stopping-criterion for IOM
   NSW    =      0    number of steps for IOM
   NBLOCK =      1;   KBLOCK =      1    inner block; outer block
   IBRION =     -1    ionic relax: 0-MD 1-quasi-New 2-CG
   NFREE  =      0    steps in history (QN), initial steepest desc. (CG)
   ISIF   =      2    stress and relaxation
   IWAVPR =     10    prediction:  0-non 1-charg 2-wave 3-comb
   ISYM   =      2    0-nonsym 1-usesym 2-fastsym
   LCORR  =      T    Harris-Foulkes like correction to forces

   POTIM  = 0.5000    time-step for ionic-motion
   TEIN   =    0.0    initial temperature
   TEBEG  =    0.0;   TEEND  =   0.0 temperature during run
   SMASS  =  -3.00    Nose mass-parameter (am)
   estimated Nose-frequenzy (Omega)   =  0.10E-29 period in steps =****** mass=  -0.544E-26a.u.
   SCALEE = 1.0000    scale energy and forces
   NPACO  =    256;   APACO  = 16.0  distance and # of slots for P.C.
   PSTRESS=    0.0 pullay stress

  Mass of Ions in am
   POMASS =   7.01 55.85 32.07 16.00
  Ionic Valenz
   ZVAL   =   3.00 14.00  6.00  6.00
  Atomic Wigner-Seitz radii
  virtual crystal weights
   VCA    =   1.00  1.00  1.00  1.00
   NELECT =    1024.0000    total number of electrons
[...]
     0.000000000  0.000000000 11.277026980     0.000000000  0.000000000  0.088675854

  length of vectors
    15.424822020 11.210242420 11.277026980     0.064830570  0.089204137  0.088675854

 FORCES acting on ions
    electron-ion (+dipol)            ewald-force                    non-local-force                 convergence-correction
   0.988E-01 0.292E-01 0.188E+02   -.935E-01 -.271E-01 -.190E+02   -.281E-02 -.134E-02 0.246E+00   -.590E-04 -.401E-04 -.759E-04
   -.177E-01 0.161E-03 0.187E+02   0.165E-01 -.112E-03 -.190E+02   0.779E-03 -.214E-04 0.246E+00   0.343E-04 -.349E-05 -.140E-04
   0.986E-01 -.282E-01 0.188E+02   -.935E-01 0.271E-01 -.190E+02   -.277E-02 0.749E-03 0.246E+00   -.355E-04 0.288E-05 -.306E-04
   -.177E-01 -.941E-04 0.187E+02   0.165E-01 0.112E-03 -.190E+02   0.807E-03 -.339E-04 0.246E+00   0.276E-05 0.340E-04 0.405E-04
   0.164E-01 -.279E-02 0.187E+02   -.155E-01 0.284E-02 -.190E+02   -.540E-03 -.468E-04 0.247E+00   -.417E-04 0.851E-05 0.997E-04
   -.111E-01 -.919E-04 0.187E+02   0.105E-01 0.110E-03 -.190E+02   0.453E-03 -.169E-04 0.246E+00   -.742E-05 0.126E-04 0.768E-04
   0.161E-01 0.261E-02 0.187E+02   -.155E-01 -.284E-02 -.190E+02   -.365E-03 0.125E-03 0.247E+00   -.404E-04 0.218E-04 0.110E-03
   -.112E-01 0.154E-03 0.187E+02   0.105E-01 -.110E-03 -.190E+02   0.456E-03 -.379E-05 0.246E+00   0.259E-04 -.297E-04 0.547E-04
   0.147E+00 -.726E-03 -.190E+02   -.139E+00 0.524E-13 0.192E+02   -.461E-02 0.469E-03 -.230E+00   -.393E-04 0.465E-04 0.115E-03
   -.186E-01 -.488E-04 -.187E+02   0.174E-01 0.506E-13 0.190E+02   0.791E-03 0.902E-05 -.246E+00   0.383E-04 0.927E-05 -.517E-04
   0.171E-01 0.217E-04 -.187E+02   -.164E-01 0.518E-13 0.190E+02   -.470E-03 -.242E-04 -.246E+00   -.216E-04 0.663E-05 -.832E-04
   -.115E-01 -.176E-04 -.187E+02   0.108E-01 0.516E-13 0.190E+02   0.464E-03 0.238E-04 -.246E+00   0.279E-04 -.168E-04 -.686E-04
   0.715E-01 -.758E-04 -.188E+02   -.673E-01 0.488E-13 0.191E+02   -.243E-02 0.571E-04 -.244E+00   -.107E-03 -.425E-04 0.185E-04
   -.167E-01 -.235E-05 -.187E+02   0.156E-01 0.506E-13 0.190E+02   0.775E-03 0.271E-04 -.246E+00   0.210E-04 -.320E-04 -.649E-04
   0.152E-01 0.304E-03 -.187E+02   -.144E-01 0.552E-13 0.190E+02   -.439E-03 -.168E-03 -.246E+00   -.649E-04 0.463E-05 -.545E-05
   -.108E-01 -.539E-04 -.187E+02   0.101E-01 0.410E-13 0.190E+02   0.451E-03 0.616E-04 -.246E+00   0.351E-06 -.296E-04 -.360E-04
   -.133E-02 -.338E-02 -.187E+02   0.128E-02 0.325E-02 0.190E+02   0.649E-04 0.642E-04 -.246E+00   -.160E-04 -.947E-05 -.618E-04
   -.369E-02 0.482E-02 -.187E+02   0.359E-02 -.468E-02 0.190E+02   0.488E-04 -.531E-04 -.246E+00   0.933E-05 -.525E-05 -.778E-05
   -.124E-02 0.342E-02 -.187E+02   0.128E-02 -.325E-02 0.190E+02   -.361E-04 -.551E-04 -.246E+00   0.320E-04 -.403E-04 0.970E-05
   -.351E-02 -.478E-02 -.187E+02   0.359E-02 0.468E-02 0.190E+02   -.892E-04 0.112E-04 -.246E+00   0.522E-04 0.425E-04 0.238E-04
   -.255E-01 -.268E-01 -.187E+02   0.241E-01 0.262E-01 0.190E+02   0.867E-03 0.235E-03 -.246E+00   0.313E-04 0.890E-05 -.702E-04
   -.208E-01 0.235E-01 -.187E+02   0.194E-01 -.228E-01 0.190E+02   0.979E-03 -.242E-03 -.247E+00   -.324E-05 -.621E-04 -.945E-04
   -.258E-01 0.269E-01 -.187E+02   0.241E-01 -.262E-01 0.190E+02   0.101E-02 -.289E-03 -.246E+00   0.110E-04 -.336E-04 -.843E-04
   -.209E-01 -.236E-01 -.187E+02   0.194E-01 0.228E-01 0.190E+02   0.104E-02 0.254E-03 -.247E+00   -.252E-04 0.610E-04 -.110E-03
   -.422E-03 0.910E-05 0.187E+02   0.699E-03 0.395E-13 -.190E+02   -.174E-03 -.951E-05 0.246E+00   -.378E-04 0.149E-04 0.689E-04
   -.352E-01 0.176E-03 0.187E+02   0.319E-01 0.332E-13 -.189E+02   0.221E-02 -.753E-04 0.247E+00   0.593E-04 -.656E-05 0.984E-04
   0.910E-03 -.808E-04 0.187E+02   -.711E-03 0.316E-13 -.190E+02   -.105E-03 0.460E-04 0.246E+00   -.306E-04 0.551E-05 0.648E-04
   -.505E-02 -.174E-03 0.187E+02   0.487E-02 0.351E-13 -.190E+02   0.118E-03 0.101E-03 0.246E+00   0.211E-04 -.123E-04 0.694E-04
   -.523E-01 -.160E-03 0.187E+02   0.491E-01 0.363E-13 -.189E+02   0.205E-02 0.930E-04 0.246E+00   0.552E-04 -.238E-04 0.369E-04
   -.826E-02 -.958E-04 0.188E+02   0.857E-02 0.323E-13 -.190E+02   -.275E-03 0.606E-04 0.245E+00   0.227E-04 -.210E-04 -.156E-04
   -.591E-02 0.813E-04 0.187E+02   0.563E-02 0.502E-13 -.190E+02   0.136E-03 -.253E-04 0.246E+00   0.659E-04 -.126E-04 0.367E-04
   0.365E-03 0.453E-04 0.187E+02   -.173E-03 0.360E-13 -.190E+02   -.142E-03 0.879E-07 0.246E+00   -.130E-05 -.282E-04 0.166E-04
   -.286E+01 -.947E-02 0.156E-01   0.315E+01 0.841E-02 -.138E-01   -.292E+00 0.794E-03 -.114E-02   -.182E-04 -.495E-05 -.670E-04
   -.288E+01 0.521E-02 -.248E-05   0.317E+01 -.494E-02 0.262E-04   -.291E+00 -.143E-03 -.126E-04   0.373E-04 -.386E-04 -.860E-05
   -.286E+01 0.442E-01 0.998E-01   0.315E+01 -.434E-01 -.965E-01   -.291E+00 -.319E-03 -.167E-02   -.266E-04 -.116E-04 -.563E-04
   -.290E+01 -.772E-02 -.293E-02   0.319E+01 0.689E-02 0.214E-02   -.291E+00 0.530E-03 0.527E-03   0.893E-04 0.310E-05 -.358E-04
   -.287E+01 -.794E-02 -.120E-01   0.316E+01 0.773E-02 0.113E-01   -.292E+00 0.100E-03 0.322E-03   0.340E-04 -.102E-04 0.556E-04
   -.288E+01 0.141E-02 -.280E-03   0.317E+01 -.124E-02 0.309E-03   -.291E+00 -.877E-04 -.212E-04   0.124E-03 -.360E-04 -.961E-05
   -.287E+01 0.158E-01 -.408E-01   0.317E+01 -.134E-01 0.380E-01   -.292E+00 -.168E-02 0.177E-02   0.372E-04 -.236E-04 0.580E-04
   -.288E+01 -.170E-02 0.364E-03   0.317E+01 0.141E-02 -.424E-03   -.291E+00 0.206E-03 0.169E-04   0.517E-04 -.178E-04 0.256E-04
   0.290E+01 0.262E-02 -.144E-01   -.319E+01 -.303E-02 0.139E-01   0.291E+00 0.270E-03 0.210E-03   -.707E-04 0.182E-04 0.674E-04
   0.286E+01 0.211E-02 -.601E-02   -.315E+01 -.200E-02 0.563E-02   0.292E+00 -.766E-04 0.217E-03   -.216E-04 -.813E-05 0.352E-04
   0.288E+01 -.158E-02 -.596E-02   -.317E+01 0.107E-02 0.504E-02   0.291E+00 0.344E-03 0.593E-03   -.642E-04 0.306E-04 0.652E-04
   0.286E+01 -.191E-02 -.351E-02   -.315E+01 0.175E-02 0.317E-02   0.292E+00 0.668E-04 0.150E-03   -.279E-04 -.652E-05 0.451E-04
   0.274E+01 -.222E+00 -.131E+00   -.304E+01 0.210E+00 0.123E+00   0.302E+00 0.118E-01 0.962E-02   0.599E-04 0.985E-04 0.408E-04
   0.285E+01 0.343E-02 0.715E-02   -.314E+01 -.294E-02 -.648E-02   0.292E+00 -.202E-03 -.236E-03   0.122E-04 -.864E-05 -.109E-03
   0.288E+01 0.258E-01 0.190E-02   -.317E+01 -.243E-01 -.234E-02   0.291E+00 -.927E-03 0.363E-03   -.522E-04 0.426E-04 -.365E-04
   0.286E+01 -.241E-02 0.373E-02   -.315E+01 0.226E-02 -.336E-02   0.292E+00 0.879E-04 -.246E-03   -.212E-04 0.284E-04 0.120E-04
   -.286E+01 0.826E-02 -.127E-01   0.315E+01 -.791E-02 0.120E-01   -.292E+00 -.159E-03 0.424E-03   0.716E-04 -.452E-04 0.392E-05
   -.288E+01 -.959E-03 -.584E-03   0.317E+01 0.887E-03 0.498E-03   -.291E+00 0.212E-04 0.241E-04   0.656E-04 0.245E-04 0.454E-04
   -.287E+01 -.169E-01 -.458E-01   0.316E+01 0.149E-01 0.431E-01   -.292E+00 0.140E-02 0.172E-02   -.337E-04 0.634E-05 0.214E-04
   -.288E+01 0.122E-02 -.132E-03   0.317E+01 -.989E-03 0.118E-03   -.291E+00 -.165E-03 -.217E-04   0.343E-04 0.261E-04 0.219E-04
   -.285E+01 0.674E-02 0.166E-01   0.314E+01 -.590E-02 -.146E-01   -.293E+00 -.619E-03 -.130E-02   -.301E-04 0.119E-04 -.302E-04
   -.288E+01 -.350E-02 0.334E-03   0.317E+01 0.331E-02 -.310E-03   -.291E+00 0.978E-04 0.247E-04   0.707E-04 0.259E-04 -.348E-04
   -.280E+01 -.504E-01 0.140E+00   0.310E+01 0.487E-01 -.134E+00   -.291E+00 0.205E-02 -.475E-02   -.142E-04 0.339E-04 -.807E-04
   -.290E+01 0.453E-02 -.895E-03   0.319E+01 -.427E-02 0.716E-03   -.291E+00 -.100E-03 0.560E-04   0.891E-04 -.280E-05 -.225E-04
   0.285E+01 -.594E-02 0.110E-01   -.314E+01 0.473E-02 -.973E-02   0.292E+00 0.768E-03 -.746E-03   -.171E-04 0.275E-04 -.626E-04
   0.275E+01 0.124E+00 -.713E-01   -.305E+01 -.118E+00 0.683E-01   0.296E+00 -.311E-02 0.160E-02   0.217E-04 -.549E-04 0.462E-04
   0.286E+01 0.342E-02 0.487E-02   -.315E+01 -.339E-02 -.449E-02   0.292E+00 -.332E-04 -.246E-03   -.583E-04 0.175E-04 -.323E-05
   0.287E+01 -.239E-01 -.297E-03   -.316E+01 0.225E-01 -.542E-03   0.292E+00 0.839E-03 0.649E-03   -.547E-04 0.488E-04 -.272E-04
[...]
   0.185E-01 0.843E-02 -.325E-01   -.170E-01 -.815E-02 0.308E-01   -.190E-02 -.254E-03 0.237E-02   -.681E-04 0.322E-04 0.110E-03
   -.185E-01 -.390E-02 -.748E-02   0.172E-01 0.376E-02 0.689E-02   0.164E-02 0.215E-03 0.787E-03   0.981E-04 0.298E-04 0.727E-04
   0.107E-02 -.155E+00 0.750E-01   -.407E-02 0.145E+00 -.722E-01   0.470E-02 0.159E-01 -.291E-02   -.305E-04 -.218E-04 -.153E-03
   -.387E-01 0.141E-01 0.822E-02   0.365E-01 -.129E-01 -.786E-02   0.300E-02 -.172E-02 -.573E-03   0.473E-05 -.114E-03 -.735E-04
   0.117E-02 0.155E+00 0.752E-01   -.407E-02 -.145E+00 -.722E-01   0.495E-02 -.169E-01 -.610E-02   -.126E-03 -.638E-04 0.785E-04
   -.387E-01 -.140E-01 0.826E-02   0.365E-01 0.129E-01 -.786E-02   0.299E-02 0.137E-02 -.441E-03   0.985E-05 0.157E-03 -.471E-04
   0.112E+00 0.315E-03 0.512E-01   -.108E+00 -.989E-14 -.486E-01   -.525E-02 -.103E-02 -.400E-02   0.628E-05 0.411E-04 -.125E-04
   -.480E-01 0.737E-04 -.152E-01   0.455E-01 -.228E-13 0.140E-01   0.310E-02 0.985E-04 0.152E-02   0.213E-03 -.403E-04 0.148E-03
   0.253E-01 0.127E-05 0.676E-02   -.233E-01 -.122E-13 -.635E-02   -.276E-02 -.131E-03 -.818E-03   -.418E-04 -.179E-04 0.826E-04
   -.217E-01 -.209E-03 -.408E-02   0.202E-01 0.468E-15 0.408E-02   0.204E-02 0.388E-03 0.312E-03   0.283E-04 -.158E-05 -.159E-03
   -.114E+00 0.130E-04 -.258E+00   0.103E+00 0.197E-13 0.239E+00   0.170E-01 0.234E-02 0.305E-01   -.215E-04 -.497E-04 -.959E-04
   -.288E-01 0.461E-04 0.132E-01   0.269E-01 0.658E-14 -.120E-01   0.255E-02 -.299E-04 -.165E-02   0.463E-04 -.848E-04 -.104E-03
   0.117E-01 0.117E-03 -.100E-01   -.113E-01 0.170E-13 0.986E-02   -.539E-03 -.186E-03 0.523E-03   0.197E-04 0.951E-04 -.150E-03
   -.156E-01 0.555E-04 0.401E-02   0.146E-01 0.298E-13 -.379E-02   0.130E-02 -.817E-04 -.272E-03   0.383E-04 -.108E-04 -.352E-04
   -.145E+00 0.169E-01 -.575E-01   -.461E-12 -.521E-14 0.118E-12   0.144E+00 -.162E-01 0.577E-01   0.411E-03 -.665E-03 -.298E-03

 POSITION                                       TOTAL-FORCE (eV/Angst)
      1.92810      2.80256      5.27212         0.002405      0.000689      0.001096
      9.64051      2.80256      5.27212        -0.000373      0.000024     -0.000068
      1.92810      8.40768      5.27212         0.002298     -0.000311      0.001009
      9.64051      8.40768      5.27212        -0.000379      0.000018     -0.000091
      1.92810      2.80256     10.91064         0.000270      0.000014     -0.000606
      9.64051      2.80256     10.91064        -0.000213      0.000014     -0.000133
      1.92810      8.40768     10.91064         0.000137     -0.000086     -0.000738
      9.64051      8.40768     10.91064        -0.000224      0.000011     -0.000125
      1.92810      0.00000      3.18565         0.002974     -0.000210      0.005986
      9.64051      0.00000      3.18565        -0.000389     -0.000030      0.000107
      1.92810      5.60512      3.18565         0.000224      0.000004      0.000279
      9.64051      5.60512      3.18565        -0.000226     -0.000011      0.000117
      1.92810      0.00000      8.82416         0.001719     -0.000061     -0.002499
      9.64051      0.00000      8.82416        -0.000341     -0.000007      0.000104
      1.92810      5.60512      8.82416         0.000198      0.000141      0.000044
      9.64051      5.60512      8.82416        -0.000206     -0.000022      0.000097
      5.78431      2.80256      0.36639        -0.000006     -0.000074      0.000059
     13.49672      2.80256      0.36639        -0.000043      0.000077     -0.000031
      5.78431      8.40768      0.36639         0.000033      0.000078      0.000006
     13.49672      8.40768      0.36639         0.000040     -0.000047     -0.000141
      5.78431      2.80256      6.00490        -0.000472     -0.000368      0.000078
     13.49672      2.80256      6.00490        -0.000468      0.000400      0.000285
      5.78431      8.40768      6.00490        -0.000632      0.000442      0.000208
     13.49672      8.40768      6.00490        -0.000532     -0.000397      0.000426
      5.78431      0.00000      2.45287         0.000066      0.000015      0.000107
     13.49672      0.00000      2.45287        -0.000996      0.000094     -0.000510
      5.78431      5.60512      2.45287         0.000064     -0.000029     -0.000065
     13.49672      5.60512      2.45287        -0.000039     -0.000085     -0.000224
      5.78431      0.00000      8.09138        -0.001161     -0.000090     -0.000400
     13.49672      0.00000      8.09138         0.000056     -0.000056      0.000506
      5.78431      5.60512      8.09138        -0.000073      0.000044     -0.000133
     13.49672      5.60512      8.09138         0.000049      0.000017      0.000018
      4.15299      4.20384      4.22889         0.000309     -0.000270      0.000547
     11.86540      4.20384      4.22889        -0.000410      0.000088      0.000003
      4.15299      9.80896      4.22889         0.000224      0.000462      0.001602
     11.86540      9.80896      4.22889        -0.000825     -0.000297     -0.000292
      4.15299      4.20384      9.86740         0.000005     -0.000124     -0.000248
     11.86540      4.20384      9.86740        -0.000307      0.000045     -0.000001
      4.15299      9.80896      9.86740         0.000045      0.000674     -0.001023
     11.86540      9.80896      9.86740        -0.000324     -0.000102     -0.000017
      3.55942      1.40128      1.40963         0.000582     -0.000130     -0.000210
     11.27183      1.40128      1.40963        -0.000234      0.000020     -0.000119
      3.55942      7.00640      1.40963         0.000599     -0.000144     -0.000267
     11.27183      7.00640      1.40963        -0.000292     -0.000101     -0.000146
      3.55942      1.40128      7.04814         0.002960      0.000667      0.002411
     11.27183      1.40128      7.04814        -0.000586      0.000287      0.000323
      3.55942      7.00640      7.04814         0.000341      0.000551     -0.000112
     11.27183      7.00640      7.04814        -0.000190     -0.000030      0.000136
      0.29678      4.20384      1.40963        -0.000021      0.000146     -0.000258
      8.00920      4.20384      1.40963        -0.000340     -0.000026     -0.000016
      0.29678      9.80896      1.40963         0.000263     -0.000598     -0.000977
      8.00920      9.80896      1.40963        -0.000396      0.000090     -0.000014
      0.29678      4.20384      7.04814         0.000461      0.000227      0.000627
      8.00920      4.20384      7.04814        -0.000422     -0.000064      0.000014
      0.29678      9.80896      7.04814         0.001877      0.000428      0.001250
      8.00920      9.80896      7.04814        -0.000741      0.000157     -0.000146
      7.41563      1.40128      4.22889        -0.000537     -0.000419      0.000420
     15.12804      1.40128      4.22889        -0.002510      0.002513     -0.001303
      7.41563      7.00640      4.22889        -0.000189      0.000018      0.000133
     15.12804      7.00640      4.22889         0.000240     -0.000548     -0.000218
[...]
     11.56862      2.80256      0.00000         0.000416     -0.000074      0.000073
      3.85621      8.40768      0.00000        -0.000535      0.000061      0.000738
     11.56862      8.40768      0.00000         0.000442      0.000108      0.000272
      3.85621      2.80256      5.63851         0.001670      0.005528     -0.000262
     11.56862      2.80256      5.63851         0.000820     -0.000594     -0.000282
      3.85621      8.40768      5.63851         0.001929     -0.006475     -0.003028
     11.56862      8.40768      5.63851         0.000794      0.000396     -0.000089
      3.85621      0.00000      2.81926        -0.001459     -0.000678     -0.001494
     11.56862      0.00000      2.81926         0.000844      0.000132      0.000514
      3.85621      5.60512      2.81926        -0.000760     -0.000148     -0.000328
     11.56862      5.60512      2.81926         0.000572      0.000177      0.000146
      3.85621      0.00000      8.45777         0.005788      0.002305      0.011065
     11.56862      0.00000      8.45777         0.000673     -0.000069     -0.000513
      3.85621      5.60512      8.45777        -0.000129      0.000026      0.000195
     11.56862      5.60512      8.45777         0.000354     -0.000037     -0.000086
    total drift:                               -0.000084     -0.000007     -0.000039

  FREE ENERGIE OF THE ION-ELECTRON SYSTEM (eV)
  free  energy   TOTEN  =      -821.92017695 eV

  energy  without entropy=     -821.92017695  energy(sigma->0) =     -821.92017695