 vasp.5.4.4.18Apr17-6-g9f103f2a35 (build Oct 25 2017 14:42:18) complex

 executed on             LinuxIFC date 2021.06.02  02:22:51

 INCAR:
 POTCAR:    PAW_PBE Li_sv 10Sep2004
 POTCAR:    PAW_PBE O 08Apr2002
 POTCAR:    PAW_PBE S 06Sep2000
 POTCAR:    PAW_PBE Fe_pv 02Aug2007

 POTCAR:    PAW_PBE Li_sv 10Sep2004

 POTCAR:    PAW_PBE O 08Apr2002

 POTCAR:    PAW_PBE S 06Sep2000

 POTCAR:    PAW_PBE Fe_pv 02Aug2007

  PAW_PBE Li_sv 10Sep2004               :
  PAW_PBE O 08Apr2002                   :
  PAW_PBE S 06Sep2000                   :
  PAW_PBE Fe_pv 02Aug2007               :

 POSCAR: # Compound: Li4O4S6Fe8. Old comment: Fe4
  positions in direct lattice
 exchange correlation table for  LEXCH =        8
   RHO(1)=    0.500       N(1)  =     2000
   RHO(2)=  100.500       N(2)  =     4000

 ion  position               nearest neighbor table
   1  0.578  0.939  0.156-   7 2.00   8 2.00  14 2.53  13 2.53
   2  0.093  0.439  0.186-   8 1.98   7 1.98
   3  0.907  0.939  0.814-   5 1.98   6 1.98
   4  0.422  0.439  0.844-   6 2.00   5 2.00  13 2.53  14 2.53
   5  0.153  0.191  0.803-   3 1.98   4 2.00  15 2.01  21 2.01  22 2.01
   6  0.649  0.687  0.803-   3 1.98   4 2.00  16 2.01  21 2.01  22 2.01
   7  0.351  0.187  0.197-   2 1.98   1 2.00  17 2.01  20 2.01  19 2.01
   8  0.847  0.691  0.197-   2 1.98   1 2.00  18 2.01  20 2.01  19 2.01
   9  0.437  0.690  0.371-  16 2.41  17 2.65  18 2.65
  10  0.934  0.187  0.371-  15 2.41  18 2.65  17 2.65
  11  0.066  0.687  0.629-  18 2.41  15 2.65  16 2.65
  12  0.563  0.190  0.629-  17 2.41  16 2.65  15 2.65
  13  0.249  0.689  0.000-  19 2.51  22 2.51  21 2.52  20 2.52   4 2.53   1 2.53
  14  0.751  0.189  1.000-  22 2.51  19 2.51  20 2.52  21 2.52   1 2.53   4 2.53
  15  0.076  0.213  0.606-   5 2.01  10 2.41  11 2.65  12 2.65
  16  0.530  0.665  0.606-   6 2.01   9 2.41  12 2.65  11 2.65
  17  0.470  0.165  0.394-   7 2.01  12 2.41   9 2.65  10 2.65
  18  0.924  0.713  0.394-   8 2.01  11 2.41  10 2.65   9 2.65
  19  0.077  0.939  0.154-   8 2.01   7 2.01  13 2.51  14 2.51
  20  0.577  0.439  0.154-   7 2.01   8 2.01  14 2.52  13 2.52
  21  0.423  0.939  0.846-   6 2.01   5 2.01  13 2.52  14 2.52
  22  0.923  0.439  0.846-   5 2.01   6 2.01  14 2.51  13 2.51

IMPORTANT INFORMATION: All symmetrisations will be switched off!
NOSYMM: (Re-)initialisation of all symmetry stuff for point group C_1.

 KPOINTS: # No comment

Automatic generation of k-mesh.
Space group operators:
 irot       det(A)        alpha          n_x          n_y          n_z        tau_x        tau_y        tau_z
    1     1.000000     0.000000     1.000000     0.000000     0.000000     0.000000     0.000000     0.000000

 Subroutine IBZKPT returns following result:

 Found     38 irreducible k-points:

 Following reciprocal coordinates:
            Coordinates               Weight
  0.000000  0.000000  0.000000      1.000000
  0.200000  0.000000 -0.000000      2.000000
  0.400000  0.000000 -0.000000      2.000000
  0.000000  0.200000  0.000000      2.000000
  0.200000  0.200000 -0.000000      2.000000
  0.400000  0.200000 -0.000000      2.000000
 -0.400000  0.200000  0.000000      2.000000
 -0.200000  0.200000  0.000000      2.000000
  0.000000  0.400000  0.000000      2.000000
  0.200000  0.400000 -0.000000      2.000000
  0.400000  0.400000 -0.000000      2.000000
 -0.400000  0.400000  0.000000      2.000000
 -0.200000  0.400000  0.000000      2.000000
  0.000000  0.000000  0.333333      2.000000
  0.200000  0.000000  0.333333      2.000000
  0.400000  0.000000  0.333333      2.000000
 -0.400000  0.000000  0.333333      2.000000
 -0.200000  0.000000  0.333333      2.000000
  0.000000  0.200000  0.333333      2.000000
  0.200000  0.200000  0.333333      2.000000
  0.400000  0.200000  0.333333      2.000000
 -0.400000  0.200000  0.333333      2.000000
 -0.200000  0.200000  0.333333      2.000000
  0.000000  0.400000  0.333333      2.000000
  0.200000  0.400000  0.333333      2.000000
  0.400000  0.400000  0.333333      2.000000
 -0.400000  0.400000  0.333333      2.000000
 -0.200000  0.400000  0.333333      2.000000
  0.000000 -0.400000  0.333333      2.000000
  0.200000 -0.400000  0.333333      2.000000
  0.400000 -0.400000  0.333333      2.000000
 -0.400000 -0.400000  0.333333      2.000000
 -0.200000 -0.400000  0.333333      2.000000
  0.000000 -0.200000  0.333333      2.000000
  0.200000 -0.200000  0.333333      2.000000
  0.400000 -0.200000  0.333333      2.000000
 -0.400000 -0.200000  0.333333      2.000000
 -0.200000 -0.200000  0.333333      2.000000

 Following cartesian coordinates:
            Coordinates               Weight
  0.000000  0.000000  0.000000      1.000000
  0.035997  0.000000  0.009795      2.000000
  0.071993  0.000000  0.019590      2.000000
  0.000000  0.035979  0.000000      2.000000
  0.035997  0.035979  0.009795      2.000000
  0.071993  0.035979  0.019590      2.000000
 -0.071993  0.035979 -0.019590      2.000000
 -0.035997  0.035979 -0.009795      2.000000
  0.000000  0.071959  0.000000      2.000000
  0.035997  0.071959  0.009795      2.000000
  0.071993  0.071959  0.019590      2.000000
 -0.071993  0.071959 -0.019590      2.000000
 -0.035997  0.071959 -0.009795      2.000000
  0.000001  0.000000  0.032684      2.000000
  0.035997  0.000000  0.042479      2.000000
  0.071994  0.000000  0.052274      2.000000
 -0.071992  0.000000  0.013094      2.000000
 -0.035996  0.000000  0.022889      2.000000
  0.000001  0.035979  0.032684      2.000000
  0.035997  0.035979  0.042479      2.000000
  0.071994  0.035979  0.052274      2.000000
 -0.071992  0.035979  0.013094      2.000000
 -0.035996  0.035979  0.022889      2.000000
  0.000001  0.071959  0.032684      2.000000
  0.035997  0.071959  0.042479      2.000000
  0.071994  0.071959  0.052274      2.000000
 -0.071992  0.071959  0.013094      2.000000
 -0.035996  0.071959  0.022889      2.000000
  0.000001 -0.071959  0.032684      2.000000
  0.035997 -0.071959  0.042479      2.000000
  0.071994 -0.071959  0.052274      2.000000
 -0.071992 -0.071959  0.013094      2.000000
 -0.035996 -0.071959  0.022889      2.000000
  0.000001 -0.035979  0.032684      2.000000
  0.035997 -0.035979  0.042479      2.000000
  0.071994 -0.035979  0.052274      2.000000
 -0.071992 -0.035979  0.013094      2.000000
 -0.035996 -0.035979  0.022889      2.000000

 Subroutine IBZKPT_HF returns following result:

 Found     75 k-points in 1st BZ
 the following     75 k-points will be used (e.g. in the exchange kernel)
 Following reciprocal coordinates:   # in IRBZ
  0.000000  0.000000  0.000000    0.01333333   1 t-inv F
  0.200000  0.000000 -0.000000    0.01333333   2 t-inv F
  0.400000  0.000000 -0.000000    0.01333333   3 t-inv F
  0.000000  0.200000  0.000000    0.01333333   4 t-inv F
  0.200000  0.200000 -0.000000    0.01333333   5 t-inv F
  0.400000  0.200000 -0.000000    0.01333333   6 t-inv F
 -0.400000  0.200000  0.000000    0.01333333   7 t-inv F
 -0.200000  0.200000  0.000000    0.01333333   8 t-inv F
  0.000000  0.400000  0.000000    0.01333333   9 t-inv F
  0.200000  0.400000 -0.000000    0.01333333  10 t-inv F
  0.400000  0.400000 -0.000000    0.01333333  11 t-inv F
 -0.400000  0.400000  0.000000    0.01333333  12 t-inv F
 -0.200000  0.400000  0.000000    0.01333333  13 t-inv F
  0.000000  0.000000  0.333333    0.01333333  14 t-inv F
  0.200000  0.000000  0.333333    0.01333333  15 t-inv F
  0.400000  0.000000  0.333333    0.01333333  16 t-inv F
 -0.400000  0.000000  0.333333    0.01333333  17 t-inv F
 -0.200000  0.000000  0.333333    0.01333333  18 t-inv F
  0.000000  0.200000  0.333333    0.01333333  19 t-inv F
  0.200000  0.200000  0.333333    0.01333333  20 t-inv F
  0.400000  0.200000  0.333333    0.01333333  21 t-inv F
 -0.400000  0.200000  0.333333    0.01333333  22 t-inv F
 -0.200000  0.200000  0.333333    0.01333333  23 t-inv F
  0.000000  0.400000  0.333333    0.01333333  24 t-inv F
  0.200000  0.400000  0.333333    0.01333333  25 t-inv F
  0.400000  0.400000  0.333333    0.01333333  26 t-inv F
 -0.400000  0.400000  0.333333    0.01333333  27 t-inv F
 -0.200000  0.400000  0.333333    0.01333333  28 t-inv F
  0.000000 -0.400000  0.333333    0.01333333  29 t-inv F
  0.200000 -0.400000  0.333333    0.01333333  30 t-inv F
  0.400000 -0.400000  0.333333    0.01333333  31 t-inv F
 -0.400000 -0.400000  0.333333    0.01333333  32 t-inv F
 -0.200000 -0.400000  0.333333    0.01333333  33 t-inv F
  0.000000 -0.200000  0.333333    0.01333333  34 t-inv F
  0.200000 -0.200000  0.333333    0.01333333  35 t-inv F
  0.400000 -0.200000  0.333333    0.01333333  36 t-inv F
 -0.400000 -0.200000  0.333333    0.01333333  37 t-inv F
 -0.200000 -0.200000  0.333333    0.01333333  38 t-inv F
 -0.200000  0.000000  0.000000    0.01333333   2 t-inv T
 -0.400000  0.000000  0.000000    0.01333333   3 t-inv T
  0.000000 -0.200000  0.000000    0.01333333   4 t-inv T
 -0.200000 -0.200000  0.000000    0.01333333   5 t-inv T
 -0.400000 -0.200000  0.000000    0.01333333   6 t-inv T
  0.400000 -0.200000 -0.000000    0.01333333   7 t-inv T
  0.200000 -0.200000 -0.000000    0.01333333   8 t-inv T
  0.000000 -0.400000  0.000000    0.01333333   9 t-inv T
 -0.200000 -0.400000  0.000000    0.01333333  10 t-inv T
 -0.400000 -0.400000  0.000000    0.01333333  11 t-inv T
  0.400000 -0.400000 -0.000000    0.01333333  12 t-inv T
  0.200000 -0.400000 -0.000000    0.01333333  13 t-inv T
 -0.000000  0.000000 -0.333333    0.01333333  14 t-inv T
 -0.200000  0.000000 -0.333333    0.01333333  15 t-inv T
 -0.400000  0.000000 -0.333333    0.01333333  16 t-inv T
  0.400000  0.000000 -0.333333    0.01333333  17 t-inv T
  0.200000  0.000000 -0.333333    0.01333333  18 t-inv T
 -0.000000 -0.200000 -0.333333    0.01333333  19 t-inv T
 -0.200000 -0.200000 -0.333333    0.01333333  20 t-inv T
 -0.400000 -0.200000 -0.333333    0.01333333  21 t-inv T
  0.400000 -0.200000 -0.333333    0.01333333  22 t-inv T
  0.200000 -0.200000 -0.333333    0.01333333  23 t-inv T
 -0.000000 -0.400000 -0.333333    0.01333333  24 t-inv T
 -0.200000 -0.400000 -0.333333    0.01333333  25 t-inv T
 -0.400000 -0.400000 -0.333333    0.01333333  26 t-inv T
  0.400000 -0.400000 -0.333333    0.01333333  27 t-inv T
  0.200000 -0.400000 -0.333333    0.01333333  28 t-inv T
 -0.000000  0.400000 -0.333333    0.01333333  29 t-inv T
 -0.200000  0.400000 -0.333333    0.01333333  30 t-inv T
 -0.400000  0.400000 -0.333333    0.01333333  31 t-inv T
  0.400000  0.400000 -0.333333    0.01333333  32 t-inv T
  0.200000  0.400000 -0.333333    0.01333333  33 t-inv T
 -0.000000  0.200000 -0.333333    0.01333333  34 t-inv T
 -0.200000  0.200000 -0.333333    0.01333333  35 t-inv T
 -0.400000  0.200000 -0.333333    0.01333333  36 t-inv T
  0.400000  0.200000 -0.333333    0.01333333  37 t-inv T
  0.200000  0.200000 -0.333333    0.01333333  38 t-inv T

 SYSTEM =  unknown system
 POSCAR =  # Compound: Li4O4S6Fe8. Old comment: Fe4

 Startparameter for this run:
   NWRITE =      1    write-flag & timer
   PREC   = accura    normal or accurate (medium, high low for compatibility)
   ISTART =      0    job   : 0-new  1-cont  2-samecut
   ICHARG =      2    charge: 1-file 2-atom 10-const
[...]
   -.159E+02 -.149E+02 -.126E+03   0.163E+02 0.153E+02 0.131E+03   -.389E+00 -.380E+00 -.463E+01   0.301E-04 0.517E-05 -.865E-04
   0.159E+02 -.149E+02 0.126E+03   -.163E+02 0.153E+02 -.131E+03   0.389E+00 -.380E+00 0.463E+01   -.307E-04 0.569E-05 0.857E-04
   -.159E+02 0.149E+02 0.126E+03   0.163E+02 -.153E+02 -.131E+03   -.386E+00 0.380E+00 0.463E+01   0.275E-04 -.895E-05 0.890E-04
   0.280E+02 0.282E+02 0.333E+02   -.284E+02 -.285E+02 -.339E+02   0.350E+00 0.353E+00 0.519E+00   -.712E-05 0.214E-05 0.533E-04
   -.279E+02 -.282E+02 0.333E+02   0.283E+02 0.286E+02 -.338E+02   -.349E+00 -.354E+00 0.519E+00   0.878E-05 -.272E-05 0.526E-04
   0.279E+02 -.282E+02 -.333E+02   -.283E+02 0.286E+02 0.338E+02   0.349E+00 -.354E+00 -.519E+00   -.813E-05 -.265E-05 -.526E-04
   -.280E+02 0.282E+02 -.333E+02   0.284E+02 -.285E+02 0.339E+02   -.350E+00 0.353E+00 -.519E+00   0.688E-05 0.246E-05 -.529E-04
   0.990E+01 0.471E-01 -.874E-02   -.100E+02 -.475E-01 0.883E-02   0.115E+00 0.380E-03 -.104E-04   -.219E-04 -.207E-05 -.268E-06
   -.990E+01 0.471E-01 0.874E-02   0.100E+02 -.475E-01 -.883E-02   -.115E+00 0.380E-03 0.106E-04   0.219E-04 -.169E-05 0.579E-06
   0.190E+02 0.189E+02 0.185E+03   -.180E+02 -.179E+02 -.183E+03   -.106E+01 -.108E+01 -.241E+01   -.218E-05 -.348E-05 -.869E-04
   -.189E+02 -.189E+02 0.185E+03   0.178E+02 0.178E+02 -.183E+03   0.106E+01 0.109E+01 -.241E+01   0.768E-05 0.630E-07 -.880E-04
   0.189E+02 -.189E+02 -.185E+03   -.178E+02 0.178E+02 0.183E+03   -.106E+01 0.109E+01 0.241E+01   -.833E-05 0.612E-06 0.880E-04
   -.190E+02 0.189E+02 -.185E+03   0.180E+02 -.179E+02 0.183E+03   0.106E+01 -.108E+01 0.241E+01   0.355E-05 -.319E-05 0.870E-04
   0.192E-01 -.708E-01 0.209E+03   -.199E-01 0.685E-01 -.211E+03   0.653E-03 0.230E-02 0.206E+01   -.493E-05 -.124E-05 0.147E-03
   0.226E-01 -.531E-01 0.199E+03   -.227E-01 0.512E-01 -.201E+03   0.109E-03 0.188E-02 0.206E+01   -.277E-05 -.259E-05 0.136E-03
   -.226E-01 -.531E-01 -.199E+03   0.227E-01 0.512E-01 0.201E+03   -.109E-03 0.188E-02 -.206E+01   0.301E-05 -.216E-05 -.136E-03
   -.192E-01 -.708E-01 -.209E+03   0.199E-01 0.685E-01 0.211E+03   -.652E-03 0.230E-02 -.206E+01   0.488E-05 -.193E-05 -.148E-03
   -.152E-05 -.755E-02 0.845E-06   0.807E-14 -.128E-12 -.114E-12   0.342E-06 0.730E-02 0.427E-06   0.328E-06 -.243E-04 -.142E-05

 POSITION                                       TOTAL-FORCE (eV/Angst)
      2.77841      5.21785      1.58925         0.000048      0.000019     -0.000019
      0.00058      2.43861      1.89560        -0.000044     -0.000000      0.000006
      2.78043      5.21797      8.30298         0.000044     -0.000000     -0.000006
      0.00259      2.43849      8.60933        -0.000048      0.000019      0.000019
     -1.37640      1.05960      8.18451         0.000003      0.000075      0.000053
      1.38116      3.81753      8.18442        -0.000006     -0.000027      0.000042
      1.39985      1.03817      2.01416         0.000006     -0.000027     -0.000042
      4.15741      3.83897      2.01406        -0.000001      0.000078     -0.000053
      1.40044      3.83812      3.78391         0.000003     -0.000025     -0.000049
      4.15774      1.03891      3.78384         0.000022      0.000035      0.000046
     -1.37674      3.81828      6.41474        -0.000023      0.000035     -0.000047
      1.38057      1.05876      6.41466        -0.000003     -0.000025      0.000050
      1.38227      3.82822      0.00001         0.000002     -0.000027      0.000079
      1.39874      1.04885     10.19857        -0.000002     -0.000027     -0.000079
     -1.25763      1.18232      6.18371        -0.000071      0.000045      0.000006
      1.26131      3.69462      6.18369         0.000013     -0.000051      0.000042
      1.51970      0.91526      4.01489        -0.000013     -0.000051     -0.000042
      4.03864      3.96168      4.01487         0.000070      0.000044     -0.000006
      0.00035      5.21813      1.57032        -0.000042     -0.000009     -0.000032
      2.77849      2.43869      1.57537         0.000046     -0.000035      0.000022
      0.00252      5.21805      8.62321        -0.000046     -0.000035     -0.000021
      2.78066      2.43877      8.62826         0.000043     -0.000011      0.000031
    total drift:                               -0.000001     -0.000271     -0.000000

  FREE ENERGIE OF THE ION-ELECTRON SYSTEM (eV)
  free  energy   TOTEN  =      -122.30181131 eV

  energy  without entropy=     -122.30181131  energy(sigma->0) =     -122.30181131

 Linear response reoptimize wavefunctions
 Linear response G [H, r] |phi>, progress :
  Direction:   1

----------------------------------------- Iteration    1(   1)  ---------------------------------------

  free energy    TOTEN  =      -579.09010796 eV

[...]

 Linear response G [H, r] |phi>, progress :
  Direction:   2

[...]

 Linear response G [H, r] |phi>, progress :
  Direction:   3

[...]

  free energy    TOTEN  =      -810.00373141 eV

[...]

 Linear response to external field (no local field effect), progress :
  Direction:   1

[...]

 Free energy of the ion-electron system (eV)
  -Hartree energ DENC   =         0.00000000
  -V(xc)+E(xc)   XCENC  =         0.00000000
  PAW double counting   =         0.00000000        0.00000000
  entropy T*S    EENTRO =         0.00000000
  eigenvalues    EBANDS =        -3.02786263
  free energy    TOTEN  =        -3.02786263 eV

  energy without entropy =       -3.02786263

[...]

 change of polarisation eV/A/(eV/A) component  1 :     9.615     0.000     0.001
 dielectric tensor                  component  1 :     6.524     0.000     0.000

[...]

 Linear response to external field (no local field effect), progress :
  Direction:   3

[...]

 HEAD OF MICROSCOPIC STATIC DIELECTRIC TENSOR (INDEPENDENT PARTICLE, excluding Hartree and local field effects)
           6.523831     0.000007     0.000372
           0.000002     6.520936     0.000009
           0.000379    -0.000009     6.705204

 Linear response to external field, progress :
  Direction:   1

[...]

 PIEZOELECTRIC TENSOR FIELD DIRECTION 1  (e Angst)
    -0.00311 -0.00045  0.00028           (  0.00005  0.00009 -0.00001)
    -0.00048 -0.00274 -1.39587           (  0.00009  0.00003  0.09211)
     0.00029 -1.38483  0.00609           ( -0.00001  0.09211  0.00005)

 PIEZOELECTRIC TENSOR FIELD DIRECTION 1  (C/m^2)
    -0.00016 -0.00002  0.00001
    -0.00002 -0.00014 -0.07100
     0.00001 -0.07044  0.00031

      POSITION         DIRECTION 1           BORN EFFECTIVE CHARGE    (rigid.aug.   ionic)
      2.77841      5.21785      1.58925     1.13138  0.16466  0.00008 ( -0.95273  3.00000)
      0.00058      2.43861      1.89560     1.19906  0.17523  0.00006 ( -0.95779  3.00000)
      2.78043      5.21797      8.30298     1.19906 -0.17523  0.00006 ( -0.95779  3.00000)
      0.00259      2.43849      8.60933     1.13138 -0.16465  0.00009 ( -0.95273  3.00000)
     -1.37640      1.05960      8.18451    -2.61919  0.70188  0.00747 ( -0.63757  6.00000)
      1.38116      3.81753      8.18442    -2.61934  0.70182 -0.00764 ( -0.63758  6.00000)
      1.39985      1.03817      2.01416    -2.61939 -0.70187 -0.00764 ( -0.63758  6.00000)
      4.15741      3.83897      2.01406    -2.61926 -0.70188  0.00744 ( -0.63757  6.00000)
      1.40044      3.83812      3.78391    -2.40826  0.04259  0.01173 (  0.81952  6.00000)
      4.15774      1.03891      3.78384    -2.40822  0.04257 -0.01237 (  0.81952  6.00000)
     -1.37674      3.81828      6.41474    -2.40833 -0.04250 -0.01230 (  0.81952  6.00000)
      1.38057      1.05876      6.41466    -2.40833 -0.04259  0.01174 (  0.81952  6.00000)
      1.38227      3.82822      0.00001    -1.73260  0.00003 -0.00023 (  0.81379  6.00000)
      1.39874      1.04885     10.19857    -1.73261  0.00003 -0.00023 (  0.81379  6.00000)
     -1.25763      1.18232      6.18371     2.37687  0.01195  0.07270 ( -8.50348 14.00000)
      1.26131      3.69462      6.18369     2.37672  0.01198 -0.07189 ( -8.50348 14.00000)
      1.51970      0.91526      4.01489     2.37655 -0.01195 -0.07190 ( -8.50348 14.00000)
      4.03864      3.96168      4.01487     2.37691 -0.01215  0.07269 ( -8.50348 14.00000)
      0.00035      5.21813      1.57032     2.40308  0.22736  0.00003 ( -8.49880 14.00000)
      2.77849      2.43869      1.57537     2.29562  0.24488  0.00014 ( -8.49803 14.00000)
      0.00252      5.21805      8.62321     2.29560 -0.24492  0.00011 ( -8.49803 14.00000)
      2.78066      2.43877      8.62826     2.40306 -0.22740  0.00002 ( -8.49880 14.00000)
    total drift (improves with k-points):  -0.01022 -0.00016  0.00017

[...]

 Linear response to external field, progress :
  Direction:   3

[...]

----------------------------------------- Iteration    3(  37)  ---------------------------------------

 Broyden mixing:
  rms(total) = 0.10829E-05    rms(broyden)= 0.10719E-05
  rms(prec ) = 0.11065E-05
  weight for this iteration     100.00

 eigenvalues of (default mixing * dielectric matrix)
  average eigenvalue GAMMA=   2.8172
 21.1161 19.1272 14.9976  4.9287  4.5490  3.3081  2.8437  2.7073  2.4865  2.2173
  1.8700  1.4114  1.4114  1.2857  1.1359  0.9707  0.9707  0.9269  0.7939  0.7939
  0.7399  0.7399  0.7411  0.6828  0.6828  0.6162  0.6162  0.6300  0.6206  0.6181
  0.5510  0.2456  0.4297  0.4297  0.4048

 Free energy of the ion-electron system (eV)
  -Hartree energ DENC   =        -0.58773971
  -V(xc)+E(xc)   XCENC  =         0.03501782
  PAW double counting   =         2.55999990       -2.22139812
  entropy T*S    EENTRO =         0.00000000
  eigenvalues    EBANDS =        -5.04028771
  free energy    TOTEN  =        -5.25440782 eV

  energy without entropy =       -5.25440782

------------------------ aborting loop because EDIFF is reached ----------------------------------------

 change of polarisation eV/A/(eV/A) component  3 :     0.000    -0.000     9.340
 dielectric tensor                  component  3 :     0.000    -0.000     6.365

 PIEZOELECTRIC TENSOR FIELD DIRECTION 3  (e Angst)
     0.00357 -2.15781 -0.00077           ( -0.00002  0.05567  0.00003)
    -2.15632  0.00167 -0.00252           (  0.05567 -0.00001  0.00016)
    -0.00079 -0.00245 -0.00511           (  0.00003  0.00016 -0.00002)

 PIEZOELECTRIC TENSOR FIELD DIRECTION 3  (C/m^2)
     0.00018 -0.10976 -0.00004
    -0.10968  0.00008 -0.00013
    -0.00004 -0.00012 -0.00026

      POSITION         DIRECTION 3           BORN EFFECTIVE CHARGE    (rigid.aug.   ionic)
      2.77841      5.21785      1.58925     0.00002 -0.00012  1.36237 ( -0.95273  3.00000)
      0.00058      2.43861      1.89560    -0.00001 -0.00012  1.40420 ( -0.95779  3.00000)
      2.78043      5.21797      8.30298    -0.00003  0.00013  1.40419 ( -0.95779  3.00000)
      0.00259      2.43849      8.60933     0.00001  0.00010  1.36237 ( -0.95273  3.00000)
     -1.37640      1.05960      8.18451     0.04140  0.04885 -2.54164 ( -0.63757  6.00000)
      1.38116      3.81753      8.18442    -0.04129 -0.04925 -2.54153 ( -0.63758  6.00000)
      1.39985      1.03817      2.01416    -0.04108  0.04940 -2.54148 ( -0.63758  6.00000)
      4.15741      3.83897      2.01406     0.04146 -0.04894 -2.54167 ( -0.63757  6.00000)
      1.40044      3.83812      3.78391    -0.00488 -0.00565 -2.34934 (  0.81952  6.00000)
      4.15774      1.03891      3.78384     0.00408  0.00519 -2.34935 (  0.81952  6.00000)
     -1.37674      3.81828      6.41474     0.00427 -0.00521 -2.34913 (  0.81952  6.00000)
      1.38057      1.05876      6.41466    -0.00472  0.00559 -2.34908 (  0.81952  6.00000)
      1.38227      3.82822      0.00001    -0.00038 -0.02802 -2.57658 (  0.81379  6.00000)
      1.39874      1.04885     10.19857    -0.00032  0.02790 -2.57660 (  0.81379  6.00000)
     -1.25763      1.18232      6.18371     0.02146  0.02375  2.36064 ( -8.50348 14.00000)
      1.26131      3.69462      6.18369    -0.02073 -0.02362  2.36062 ( -8.50348 14.00000)
      1.51970      0.91526      4.01489    -0.02081  0.02358  2.36054 ( -8.50348 14.00000)
      4.03864      3.96168      4.01487     0.02174 -0.02364  2.36050 ( -8.50348 14.00000)
      0.00035      5.21813      1.57032    -0.00005  0.00028  2.44902 ( -8.49880 14.00000)
      2.77849      2.43869      1.57537     0.00011  0.00026  2.42718 ( -8.49803 14.00000)
      0.00252      5.21805      8.62321     0.00000 -0.00042  2.42711 ( -8.49803 14.00000)
      2.78066      2.43877      8.62826     0.00002 -0.00027  2.44902 ( -8.49880 14.00000)
    total drift (improves with k-points):   0.00027 -0.00023  0.01136

 MACROSCOPIC STATIC DIELECTRIC TENSOR (including local field effects in DFT)
           6.278728     0.000008     0.000188
           0.000005     6.274806    -0.000002
           0.000196    -0.000012     6.365443

 MACROSCOPIC STATIC DIELECTRIC TENSOR (including local field effects in DFT)
           6.278728     0.000008     0.000188
           0.000005     6.274806    -0.000002
           0.000196    -0.000012     6.365443

 PIEZOELECTRIC TENSOR  for field in x, y, z        (e  Angst)
          XX          YY          ZZ          XY          YZ          ZX
  x    -0.00311    -0.00274     0.00609    -0.00048    -1.38483     0.00028
  y    -0.00251    -0.00132     0.00537    -0.00044    -0.00002    -1.39714
  z     0.00357     0.00167    -0.00511    -2.15632    -0.00245    -0.00077

 PIEZOELECTRIC TENSOR  for field in x, y, z        (C/m^2)
          XX          YY          ZZ          XY          YZ          ZX
  x    -0.00016    -0.00014     0.00031    -0.00002    -0.07044     0.00001
  y    -0.00013    -0.00007     0.00027    -0.00002    -0.00000    -0.07107
  z     0.00018     0.00008    -0.00026    -0.10968    -0.00012    -0.00004

 BORN EFFECTIVE CHARGES (in e, cummulative output)
 ion    1
    1     1.13185     0.16466     0.00007
    2     0.16600     1.13816    -0.00021
    3     0.00001    -0.00011     1.36185
 ion    2
    1     1.19953     0.17524     0.00005
    2     0.17408     1.19447    -0.00023
    3    -0.00002    -0.00011     1.40368
 ion    3
    1     1.19952    -0.17523     0.00006
    2    -0.17407     1.19447     0.00023
    3    -0.00004     0.00014     1.40368
 ion    4
    1     1.13184    -0.16464     0.00008
    2    -0.16599     1.13816     0.00021
    3     0.00000     0.00011     1.36186
 ion    5
    1    -2.61872     0.70189     0.00746
    2     0.70152    -2.61829     0.01285
    3     0.04139     0.04886    -2.54215
 ion    6
    1    -2.61887     0.70183    -0.00764
    2     0.70145    -2.61830    -0.01328
    3    -0.04130    -0.04924    -2.54204
 ion    7
    1    -2.61892    -0.70186    -0.00765
    2    -0.70145    -2.61829     0.01326
    3    -0.04109     0.04941    -2.54200
 ion    8
    1    -2.61879    -0.70188     0.00743
    2    -0.70154    -2.61831    -0.01289
    3     0.04144    -0.04893    -2.54218
 ion    9
    1    -2.40779     0.04260     0.01172
    2     0.04258    -2.40480     0.00787
    3    -0.00490    -0.00564    -2.34986
 ion   10
    1    -2.40776     0.04257    -0.01237
    2     0.04262    -2.40493    -0.00821
    3     0.00407     0.00520    -2.34987
 ion   11
    1    -2.40786    -0.04249    -0.01230
    2    -0.04263    -2.40492     0.00821
    3     0.00425    -0.00520    -2.34965
 ion   12
    1    -2.40787    -0.04259     0.01174
    2    -0.04257    -2.40482    -0.00786
    3    -0.00473     0.00560    -2.34959
 ion   13
    1    -1.73213     0.00004    -0.00024
    2     0.00000    -1.73461    -0.01382
    3    -0.00039    -0.02801    -2.57710
 ion   14
    1    -1.73214     0.00004    -0.00023
    2    -0.00001    -1.73460     0.01384
    3    -0.00033     0.02791    -2.57712
 ion   15
    1     2.37734     0.01196     0.07269
    2     0.01213     2.37291     0.07096
    3     0.02145     0.02376     2.36012
 ion   16
    1     2.37719     0.01199    -0.07190
    2     0.01227     2.37291    -0.07067
    3    -0.02074    -0.02361     2.36010
 ion   17
    1     2.37701    -0.01195    -0.07191
    2    -0.01226     2.37298     0.07066
    3    -0.02082     0.02359     2.36002
 ion   18
    1     2.37737    -0.01214     0.07269
    2    -0.01217     2.37288    -0.07097
    3     0.02173    -0.02363     2.35999
 ion   19
    1     2.40354     0.22737     0.00002
    2     0.23917     2.30812     0.00020
    3    -0.00006     0.00029     2.44851
 ion   20
    1     2.29609     0.24488     0.00013
    2     0.23342     2.39431     0.00013
    3     0.00009     0.00027     2.42666
 ion   21
    1     2.29607    -0.24491     0.00011
    2    -0.23341     2.39433    -0.00013
    3    -0.00001    -0.00041     2.42659
 ion   22
    1     2.40353    -0.22739     0.00001
    2    -0.23913     2.30817    -0.00016
    3     0.00001    -0.00026     2.44850