 vasp.5.4.4.18Apr17-6-g9f103f2a35 (build Oct 25 2017 14:42:18) complex

 executed on             LinuxIFC date 2021.05.28  04:40:41

 INCAR:
 POTCAR:    PAW_PBE Li_sv 10Sep2004
 POTCAR:    PAW_PBE O 08Apr2002
 POTCAR:    PAW_PBE S 06Sep2000
 POTCAR:    PAW_PBE Fe_pv 02Aug2007

 POTCAR:    PAW_PBE Li_sv 10Sep2004

 POTCAR:    PAW_PBE O 08Apr2002

 POTCAR:    PAW_PBE S 06Sep2000

 POTCAR:    PAW_PBE Fe_pv 02Aug2007

  PAW_PBE Li_sv 10Sep2004               :
  PAW_PBE O 08Apr2002                   :
  PAW_PBE S 06Sep2000                   :
  PAW_PBE Fe_pv 02Aug2007               :

 POSCAR: # Compound: Li18O18S27Fe36. Old comment:
  positions in direct lattice
 exchange correlation table for  LEXCH =        8
   RHO(1)=    0.500       N(1)  =     2000
   RHO(2)=  100.500       N(2)  =     4000

 ion  position               nearest neighbor table
   1  0.202  0.242  0.832-  31 1.98  28 1.99  56 2.61  55 2.61
   2  0.536  0.242  0.832-  32 1.98  29 1.99  57 2.61  56 2.61
   3  0.869  0.242  0.832-  33 1.98  30 1.99  55 2.61  57 2.61
   4  0.202  0.575  0.832-  34 1.98  31 1.99  59 2.61  58 2.61
   5  0.536  0.575  0.832-  35 1.98  32 1.99  60 2.61  59 2.61
   6  0.869  0.575  0.832-  36 1.98  33 1.99  58 2.61  60 2.61
   7  0.202  0.909  0.832-  28 1.98  34 1.99  62 2.61  61 2.61
   8  0.536  0.909  0.832-  29 1.98  35 1.99  63 2.61  62 2.61
   9  0.869  0.909  0.832-  30 1.98  36 1.99  61 2.61  63 2.61
  10  0.091  0.131  0.168-  21 1.98  19 1.99  61 2.61  55 2.61
  11  0.425  0.131  0.168-  19 1.98  20 1.99  62 2.61  56 2.61
  12  0.758  0.131  0.168-  20 1.98  21 1.99  63 2.61  57 2.61
  13  0.091  0.464  0.168-  24 1.98  22 1.99  55 2.61  58 2.61
  14  0.425  0.464  0.168-  22 1.98  23 1.99  56 2.61  59 2.61
  15  0.758  0.464  0.168-  23 1.98  24 1.99  57 2.61  60 2.61
  16  0.091  0.798  0.168-  27 1.98  25 1.99  58 2.61  61 2.61
  17  0.425  0.798  0.168-  25 1.98  26 1.99  59 2.61  62 2.61
  18  0.758  0.798  0.168-  26 1.98  27 1.99  60 2.61  63 2.61
  19  0.263  0.136  0.197-  11 1.98  10 1.99  97 2.01  64 2.01  91 2.01
  20  0.596  0.136  0.197-  12 1.98  11 1.99  98 2.01  65 2.01  92 2.01
  21  0.930  0.136  0.197-  10 1.98  12 1.99  99 2.01  66 2.01  93 2.01
  22  0.263  0.469  0.197-  14 1.98  13 1.99  91 2.01  67 2.01  94 2.01
  23  0.596  0.469  0.197-  15 1.98  14 1.99  92 2.01  68 2.01  95 2.01
  24  0.930  0.469  0.197-  13 1.98  15 1.99  93 2.01  69 2.01  96 2.01
  25  0.263  0.803  0.197-  17 1.98  16 1.99  94 2.01  70 2.01  97 2.01
  26  0.596  0.803  0.197-  18 1.98  17 1.99  95 2.01  71 2.01  98 2.01
  27  0.930  0.803  0.197-  16 1.98  18 1.99  96 2.01  72 2.01  99 2.01
  28  0.197  0.070  0.803-   7 1.98   1 1.99  83 2.01  73 2.01  82 2.01
  29  0.531  0.070  0.803-   8 1.98   2 1.99  84 2.01  74 2.01  83 2.01
  30  0.864  0.070  0.803-   9 1.98   3 1.99  82 2.01  75 2.01  84 2.01
  31  0.197  0.404  0.803-   1 1.98   4 1.99  86 2.01  76 2.01  85 2.01
  32  0.531  0.404  0.803-   2 1.98   5 1.99  87 2.01  77 2.01  86 2.01
  33  0.864  0.404  0.803-   3 1.98   6 1.99  85 2.01  78 2.01  87 2.01
  34  0.197  0.737  0.803-   4 1.98   7 1.99  89 2.01  79 2.01  88 2.01
  35  0.531  0.737  0.803-   5 1.98   8 1.99  90 2.01  80 2.01  89 2.01
  36  0.864  0.737  0.803-   6 1.98   9 1.99  88 2.01  81 2.01  90 2.01
  37  0.003  0.207  0.629-  66 2.41  73 2.70  75 2.76
  38  0.336  0.207  0.629-  64 2.41  74 2.70  73 2.76
  39  0.669  0.207  0.629-  65 2.41  75 2.70  74 2.76
  40  0.003  0.540  0.629-  69 2.41  76 2.70  78 2.76
  41  0.336  0.540  0.629-  67 2.41  77 2.70  76 2.76
  42  0.669  0.540  0.629-  68 2.41  78 2.70  77 2.76
  43  0.003  0.873  0.629-  72 2.41  79 2.70  81 2.76
  44  0.336  0.873  0.629-  70 2.41  80 2.70  79 2.76
  45  0.669  0.873  0.629-  71 2.41  81 2.70  80 2.76
  46  0.127  0.331  0.371-  76 2.41  64 2.69  67 2.76
  47  0.460  0.331  0.371-  77 2.41  65 2.70  68 2.76
  48  0.793  0.331  0.371-  78 2.41  66 2.70  69 2.76
  49  0.127  0.664  0.371-  79 2.41  67 2.70  70 2.76
  50  0.460  0.664  0.371-  80 2.41  68 2.70  71 2.76
  51  0.793  0.664  0.371-  81 2.41  69 2.70  72 2.76
  52  0.127  0.997  0.371-  73 2.41  70 2.70  64 2.77
  53  0.460  0.997  0.371-  74 2.41  71 2.70  65 2.76
  54  0.793  0.997  0.371-  75 2.41  72 2.70  66 2.76
  55  0.064  0.270  0.000-  85 2.52  93 2.52  82 2.52  91 2.52  13 2.61   3 2.61  10 2.61   1 2.61

  56  0.397  0.270  0.000-  86 2.52  91 2.52  83 2.52  92 2.52  14 2.61   1 2.61  11 2.61   2 2.61

[...]

  64  0.290  0.173  0.394-  19 2.01  38 2.41  46 2.69  52 2.77
  65  0.624  0.172  0.394-  20 2.01  39 2.41  47 2.70  53 2.76
  66  0.957  0.172  0.394-  21 2.01  37 2.41  48 2.70  54 2.76
  67  0.290  0.505  0.394-  22 2.01  41 2.41  49 2.70  46 2.76
  68  0.624  0.505  0.394-  23 2.01  42 2.41  50 2.70  47 2.76
  69  0.957  0.505  0.394-  24 2.01  40 2.41  51 2.70  48 2.76
  70  0.290  0.839  0.394-  25 2.01  44 2.41  52 2.70  49 2.76
  71  0.624  0.839  0.394-  26 2.01  45 2.41  53 2.70  50 2.76
  72  0.957  0.839  0.394-  27 2.01  43 2.41  54 2.70  51 2.76
  73  0.161  0.043  0.606-  28 2.01  52 2.41  37 2.70  38 2.76
  74  0.495  0.043  0.606-  29 2.01  53 2.41  38 2.70  39 2.76
  75  0.828  0.043  0.606-  30 2.01  54 2.41  39 2.70  37 2.76
  76  0.161  0.376  0.606-  31 2.01  46 2.41  40 2.70  41 2.76
  77  0.495  0.376  0.606-  32 2.01  47 2.41  41 2.70  42 2.76
  78  0.828  0.376  0.606-  33 2.01  48 2.41  42 2.70  40 2.76
  79  0.161  0.710  0.606-  34 2.01  49 2.41  43 2.70  44 2.76
  80  0.495  0.710  0.606-  35 2.01  50 2.41  44 2.70  45 2.76
  81  0.828  0.710  0.606-  36 2.01  51 2.41  45 2.70  43 2.76
  82  0.038  0.077  0.845-  30 2.01  28 2.01  61 2.52  55 2.52
  83  0.371  0.077  0.845-  28 2.01  29 2.01  62 2.52  56 2.52
  84  0.704  0.077  0.845-  29 2.01  30 2.01  63 2.52  57 2.52
  85  0.038  0.411  0.845-  33 2.01  31 2.01  55 2.52  58 2.52
  86  0.371  0.411  0.845-  31 2.01  32 2.01  56 2.52  59 2.52
  87  0.704  0.411  0.845-  32 2.01  33 2.01  57 2.52  60 2.52
  88  0.038  0.744  0.845-  36 2.01  34 2.01  58 2.52  61 2.52
  89  0.371  0.744  0.845-  34 2.01  35 2.01  59 2.52  62 2.52
  90  0.704  0.744  0.845-  35 2.01  36 2.01  60 2.52  63 2.52
  91  0.256  0.296  0.155-  22 2.01  19 2.01  56 2.52  55 2.52
  92  0.589  0.296  0.155-  23 2.01  20 2.01  57 2.52  56 2.52
  93  0.923  0.296  0.155-  24 2.01  21 2.01  55 2.52  57 2.52
  94  0.256  0.629  0.155-  25 2.01  22 2.01  59 2.52  58 2.52
  95  0.589  0.629  0.155-  26 2.01  23 2.01  60 2.52  59 2.52
  96  0.923  0.629  0.155-  27 2.01  24 2.01  58 2.52  60 2.52
  97  0.256  0.962  0.155-  19 2.01  25 2.01  62 2.52  61 2.52
  98  0.589  0.962  0.155-  20 2.01  26 2.01  63 2.52  62 2.52
  99  0.923  0.962  0.155-  21 2.01  27 2.01  61 2.52  63 2.52

IMPORTANT INFORMATION: All symmetrisations will be switched off!
NOSYMM: (Re-)initialisation of all symmetry stuff for point group C_1.

 KPOINTS: # No comment

Automatic generation of k-mesh.
Space group operators:
 irot       det(A)        alpha          n_x          n_y          n_z        tau_x        tau_y        tau_z
    1     1.000000     0.000001     1.000000     0.000000     0.000000     0.000000     0.000000     0.000000

 Subroutine IBZKPT returns following result:

 Found     14 irreducible k-points:

 Following reciprocal coordinates:
            Coordinates               Weight
  0.000000  0.000000  0.000000      1.000000
  0.333333 -0.000000 -0.000000      2.000000
  0.000000  0.333333  0.000000      2.000000
  0.333333  0.333333  0.000000      2.000000
 -0.333333  0.333333  0.000000      2.000000
 -0.000000 -0.000000  0.333333      2.000000
  0.333333 -0.000000  0.333333      2.000000
 -0.333333 -0.000000  0.333333      2.000000
 -0.000000  0.333333  0.333333      2.000000
  0.333333  0.333333  0.333333      2.000000
 -0.333333  0.333333  0.333333      2.000000
 -0.000000 -0.333333  0.333333      2.000000
  0.333333 -0.333333  0.333333      2.000000
 -0.333333 -0.333333  0.333333      2.000000

 Following cartesian coordinates:
            Coordinates               Weight
  0.000000  0.000000  0.000000      1.000000
  0.028270  0.000040  0.005614      2.000000
 -0.000053  0.028270  0.005614      2.000000
  0.028217  0.028310  0.011229      2.000000
 -0.028323  0.028230 -0.000000      2.000000
 -0.000192 -0.000192  0.032649      2.000000
  0.028078 -0.000153  0.038263      2.000000
 -0.028462 -0.000232  0.027035      2.000000
 -0.000245  0.028078  0.038263      2.000000
  0.028025  0.028117  0.043878      2.000000
 -0.028515  0.028038  0.032649      2.000000
 -0.000138 -0.028462  0.027035      2.000000
  0.028132 -0.028423  0.032649      2.000000
 -0.028408 -0.028502  0.021421      2.000000

 SYSTEM =  unknown system
 POSCAR =  # Compound: Li18O18S27Fe36. Old comment:

 Startparameter for this run:
   NWRITE =      1    write-flag & timer
   PREC   = accura    normal or accurate (medium, high low for compatibility)
   ISTART =      0    job   : 0-new  1-cont  2-samecut
   ICHARG =      1    charge: 1-file 2-atom 10-const
   ISPIN  =      2    spin polarized calculation?
   LNONCOLLINEAR =      F non collinear calculations
   LSORBIT =      F    spin-orbit coupling
   INIWAV =      1    electr: 0-lowe 1-rand  2-diag
   LASPH  =      T    aspherical Exc in radial PAW
   METAGGA=      F    non-selfconsistent MetaGGA calc.

 Electronic Relaxation 1
   ENCUT  =  650.0 eV  47.77 Ry    6.91 a.u.  24.48 24.48 21.99*2*pi/ulx,y,z
   ENINI  =  650.0     initial cutoff
   ENAUG  =  628.9 eV  augmentation charge cutoff
   NELM   =    200;   NELMIN=  8; NELMDL=  0     # of ELM steps
   EDIFF  = 0.1E-05   stopping-criterion for ELM
   LREAL  =      F    real-space projection
   NLSPLINE    = F    spline interpolate recip. space projectors
   LCOMPAT=      F    compatible to vasp.4.4
   GGA_COMPAT  = T    GGA compatible to vasp.4.4-vasp.4.6
   LMAXPAW     = -100 max onsite density
   LMAXMIX     =    4 max onsite mixed and CHGCAR
   VOSKOWN=      0    Vosko Wilk Nusair interpolation
   ROPT   =    0.00000   0.00000   0.00000   0.00000
 Ionic relaxation
   EDIFFG = 0.1E-04   stopping-criterion for IOM
   NSW    =      0    number of steps for IOM
   NBLOCK =      1;   KBLOCK =      1    inner block; outer block
   IBRION =     -1    ionic relax: 0-MD 1-quasi-New 2-CG
   NFREE  =      0    steps in history (QN), initial steepest desc. (CG)
   ISIF   =      2    stress and relaxation
   IWAVPR =     10    prediction:  0-non 1-charg 2-wave 3-comb
   ISYM   =      0    0-nonsym 1-usesym 2-fastsym
   LCORR  =      T    Harris-Foulkes like correction to forces

   POTIM  = 0.5000    time-step for ionic-motion
   TEIN   =    0.0    initial temperature
   TEBEG  =    0.0;   TEEND  =   0.0 temperature during run
   SMASS  =  -3.00    Nose mass-parameter (am)
   estimated Nose-frequenzy (Omega)   =  0.10E-29 period in steps =****** mass=  -0.317E-26a.u.
   SCALEE = 1.0000    scale energy and forces
   NPACO  =    256;   APACO  = 16.0  distance and # of slots for P.C.
   PSTRESS=    0.0 pullay stress

  Mass of Ions in am
   POMASS =   7.01 16.00 32.07 55.85
  Ionic Valenz
   ZVAL   =   3.00  6.00  6.00 14.00
  Atomic Wigner-Seitz radii
  virtual crystal weights
[...]
    -2.020002310 -2.026663200 10.185746220    -0.000575372 -0.000577269  0.097947445

  length of vectors
    11.777476292 11.777476285 10.580037765     0.086466605  0.086466605  0.097950836

 FORCES acting on ions
    electron-ion (+dipol)            ewald-force                    non-local-force                 convergence-correction
   -.268E+00 -.432E+00 -.341E+02   0.271E+00 0.483E+00 0.340E+02   -.225E-02 -.506E-01 0.129E+00   -.145E-04 0.158E-04 0.704E-05
   -.271E+00 -.436E+00 -.341E+02   0.273E+00 0.488E+00 0.340E+02   -.219E-02 -.506E-01 0.129E+00   0.135E-04 0.230E-04 0.847E-05
   -.264E+00 -.462E+00 -.341E+02   0.266E+00 0.513E+00 0.340E+02   -.217E-02 -.507E-01 0.129E+00   0.350E-05 0.305E-05 0.437E-05
   -.257E+00 -.517E+00 -.342E+02   0.260E+00 0.569E+00 0.340E+02   -.208E-02 -.521E-01 0.128E+00   -.602E-05 -.502E-05 0.239E-06
   -.278E+00 -.510E+00 -.342E+02   0.280E+00 0.561E+00 0.340E+02   -.223E-02 -.520E-01 0.128E+00   -.363E-05 -.658E-05 -.401E-05
   -.267E+00 -.499E+00 -.341E+02   0.269E+00 0.550E+00 0.340E+02   -.229E-02 -.520E-01 0.128E+00   0.134E-04 -.716E-05 -.618E-05
   -.277E+00 -.494E+00 -.341E+02   0.279E+00 0.545E+00 0.340E+02   -.216E-02 -.511E-01 0.128E+00   -.158E-04 -.242E-04 -.105E-04
   -.254E+00 -.496E+00 -.341E+02   0.256E+00 0.548E+00 0.340E+02   -.201E-02 -.510E-01 0.128E+00   0.150E-04 -.286E-04 -.328E-05
   -.272E+00 -.484E+00 -.341E+02   0.274E+00 0.536E+00 0.340E+02   -.242E-02 -.510E-01 0.128E+00   -.108E-04 -.920E-06 -.245E-05
   0.474E+00 0.481E+00 0.341E+02   -.525E+00 -.487E+00 -.340E+02   0.508E-01 0.434E-02 -.128E+00   0.250E-04 0.291E-04 0.177E-04
   0.487E+00 0.465E+00 0.341E+02   -.538E+00 -.471E+00 -.340E+02   0.520E-01 0.404E-02 -.128E+00   -.265E-04 0.322E-04 0.118E-04
   0.482E+00 0.300E+00 0.341E+02   -.533E+00 -.303E+00 -.340E+02   0.509E-01 0.279E-02 -.128E+00   -.221E-05 0.113E-04 0.240E-06
   0.522E+00 0.203E+00 0.342E+02   -.573E+00 -.204E+00 -.340E+02   0.511E-01 0.152E-02 -.127E+00   0.515E-05 -.288E-04 0.115E-04
   0.440E+00 0.207E+00 0.342E+02   -.491E+00 -.208E+00 -.340E+02   0.517E-01 0.162E-02 -.128E+00   0.250E-04 -.199E-04 0.122E-04
   0.481E+00 0.257E+00 0.341E+02   -.532E+00 -.259E+00 -.340E+02   0.509E-01 0.225E-02 -.128E+00   -.254E-04 -.184E-04 -.155E-05
   0.443E+00 0.199E+00 0.341E+02   -.495E+00 -.199E+00 -.340E+02   0.509E-01 0.140E-02 -.129E+00   0.701E-05 -.693E-05 0.754E-07
   0.519E+00 0.201E+00 0.341E+02   -.571E+00 -.201E+00 -.340E+02   0.519E-01 0.154E-02 -.129E+00   0.602E-05 -.293E-05 -.554E-05
   0.480E+00 0.251E+00 0.341E+02   -.531E+00 -.253E+00 -.340E+02   0.508E-01 0.216E-02 -.129E+00   -.106E-04 -.136E-05 0.105E-04
   -.673E+01 0.365E+01 0.124E+03   0.702E+01 -.379E+01 -.129E+03   -.286E+00 0.145E+00 0.454E+01   0.112E-04 -.357E-04 -.841E-04
   -.672E+01 0.237E+01 0.124E+03   0.701E+01 -.245E+01 -.129E+03   -.286E+00 0.830E-01 0.454E+01   0.721E-04 0.126E-03 -.814E-04
   -.673E+01 0.238E+01 0.124E+03   0.702E+01 -.246E+01 -.129E+03   -.286E+00 0.836E-01 0.454E+01   -.249E-04 0.111E-03 -.101E-03
   -.673E+01 0.201E+01 0.125E+03   0.702E+01 -.208E+01 -.129E+03   -.286E+00 0.695E-01 0.455E+01   0.651E-04 -.425E-04 -.547E-04
   -.678E+01 0.221E+01 0.124E+03   0.707E+01 -.228E+01 -.129E+03   -.289E+00 0.712E-01 0.455E+01   -.695E-04 0.135E-04 -.136E-03
   -.668E+01 0.220E+01 0.124E+03   0.696E+01 -.227E+01 -.129E+03   -.282E+00 0.708E-01 0.455E+01   0.646E-04 0.387E-04 -.107E-03
   -.672E+01 0.200E+01 0.124E+03   0.701E+01 -.208E+01 -.129E+03   -.285E+00 0.695E-01 0.454E+01   0.464E-04 -.221E-04 -.223E-03
   -.668E+01 0.219E+01 0.124E+03   0.697E+01 -.227E+01 -.129E+03   -.282E+00 0.712E-01 0.454E+01   0.718E-04 -.982E-05 -.947E-04
   -.678E+01 0.219E+01 0.124E+03   0.707E+01 -.226E+01 -.129E+03   -.289E+00 0.707E-01 0.454E+01   -.782E-04 -.161E-04 -.110E-03
   -.231E+01 0.678E+01 -.124E+03   0.239E+01 -.707E+01 0.129E+03   -.761E-01 0.288E+00 -.454E+01   -.993E-04 0.789E-04 0.128E-03
   -.224E+01 0.676E+01 -.124E+03   0.231E+01 -.705E+01 0.129E+03   -.777E-01 0.288E+00 -.454E+01   0.647E-05 0.214E-04 0.111E-03
   -.228E+01 0.675E+01 -.124E+03   0.235E+01 -.704E+01 0.129E+03   -.769E-01 0.288E+00 -.454E+01   -.714E-04 0.131E-03 0.116E-03
   -.224E+01 0.673E+01 -.124E+03   0.231E+01 -.702E+01 0.129E+03   -.780E-01 0.286E+00 -.454E+01   -.448E-04 -.569E-05 0.163E-03
   -.232E+01 0.674E+01 -.124E+03   0.240E+01 -.703E+01 0.129E+03   -.758E-01 0.287E+00 -.454E+01   -.843E-04 0.204E-04 0.161E-03
   -.227E+01 0.673E+01 -.124E+03   0.234E+01 -.701E+01 0.129E+03   -.767E-01 0.286E+00 -.454E+01   -.164E-04 -.514E-04 0.139E-03
   -.227E+01 0.664E+01 -.124E+03   0.235E+01 -.693E+01 0.129E+03   -.768E-01 0.283E+00 -.454E+01   -.524E-04 -.132E-03 0.142E-03
   -.227E+01 0.665E+01 -.124E+03   0.235E+01 -.694E+01 0.129E+03   -.767E-01 0.283E+00 -.454E+01   -.787E-04 -.804E-04 0.140E-03
   -.228E+01 0.668E+01 -.124E+03   0.236E+01 -.697E+01 0.129E+03   -.771E-01 0.283E+00 -.454E+01   -.456E-04 -.118E-03 0.126E-03
   0.468E+01 -.112E+02 -.319E+02   -.476E+01 0.113E+02 0.324E+02   0.833E-01 -.132E+00 -.499E+00   -.542E-05 0.221E-05 0.114E-03
   0.467E+01 -.105E+02 -.318E+02   -.476E+01 0.106E+02 0.323E+02   0.834E-01 -.124E+00 -.500E+00   -.119E-04 0.250E-03 0.812E-04
   0.468E+01 -.112E+02 -.319E+02   -.476E+01 0.113E+02 0.324E+02   0.835E-01 -.132E+00 -.499E+00   -.905E-06 0.855E-05 0.705E-04
   0.472E+01 -.113E+02 -.319E+02   -.481E+01 0.115E+02 0.324E+02   0.845E-01 -.136E+00 -.501E+00   -.303E-05 -.277E-04 0.107E-03
   0.467E+01 -.115E+02 -.320E+02   -.476E+01 0.116E+02 0.325E+02   0.832E-01 -.137E+00 -.501E+00   0.160E-05 -.470E-04 0.658E-04
   0.463E+01 -.113E+02 -.319E+02   -.472E+01 0.115E+02 0.324E+02   0.824E-01 -.136E+00 -.501E+00   -.172E-04 -.409E-04 0.687E-04
   0.463E+01 -.113E+02 -.318E+02   -.471E+01 0.115E+02 0.323E+02   0.823E-01 -.136E+00 -.497E+00   -.624E-05 0.897E-06 0.565E-04
   0.468E+01 -.115E+02 -.317E+02   -.477E+01 0.116E+02 0.322E+02   0.836E-01 -.136E+00 -.497E+00   0.144E-04 -.593E-04 0.887E-04
   0.472E+01 -.113E+02 -.318E+02   -.480E+01 0.115E+02 0.323E+02   0.843E-01 -.136E+00 -.497E+00   -.909E-05 -.954E-05 0.444E-04
   0.122E+02 -.498E+01 0.320E+02   -.124E+02 0.507E+01 -.325E+02   0.146E+00 -.867E-01 0.499E+00   0.647E-04 -.180E-04 -.471E-04
   0.105E+02 -.488E+01 0.320E+02   -.106E+02 0.497E+01 -.325E+02   0.120E+00 -.883E-01 0.499E+00   -.403E-04 0.953E-05 -.182E-04
   0.113E+02 -.461E+01 0.319E+02   -.114E+02 0.469E+01 -.324E+02   0.135E+00 -.818E-01 0.498E+00   0.820E-05 -.200E-04 -.677E-04
   0.113E+02 -.483E+01 0.319E+02   -.114E+02 0.492E+01 -.324E+02   0.135E+00 -.870E-01 0.499E+00   0.887E-05 0.321E-05 -.107E-03
   0.113E+02 -.482E+01 0.319E+02   -.114E+02 0.491E+01 -.324E+02   0.135E+00 -.868E-01 0.499E+00   0.475E-04 -.112E-04 -.948E-04
   0.113E+02 -.470E+01 0.319E+02   -.114E+02 0.479E+01 -.324E+02   0.135E+00 -.856E-01 0.499E+00   -.633E-05 0.346E-04 -.828E-04
   0.105E+02 -.501E+01 0.318E+02   -.106E+02 0.510E+01 -.323E+02   0.122E+00 -.891E-01 0.499E+00   -.284E-04 0.269E-04 -.172E-03
   0.120E+02 -.491E+01 0.318E+02   -.122E+02 0.499E+01 -.323E+02   0.149E+00 -.894E-01 0.499E+00   0.555E-04 0.108E-04 -.133E-03
   0.113E+02 -.461E+01 0.319E+02   -.114E+02 0.469E+01 -.324E+02   0.135E+00 -.815E-01 0.499E+00   -.343E-05 -.191E-04 -.104E-03
   0.298E-01 0.625E-01 0.995E-01   -.264E-01 -.662E-01 -.101E+00   -.331E-02 0.402E-02 0.201E-02   -.237E-04 0.567E-05 0.346E-05
   -.605E-01 0.767E-01 0.941E-01   0.638E-01 -.802E-01 -.953E-01   -.326E-02 0.371E-02 0.200E-02   0.105E-04 0.206E-04 0.304E-04
   -.135E-01 0.480E-01 0.193E-01   0.168E-01 -.516E-01 -.198E-01   -.324E-02 0.376E-02 0.817E-03   -.176E-04 -.198E-05 -.352E-05
   -.859E-02 -.619E-01 -.127E-01   0.119E-01 0.591E-01 0.129E-01   -.325E-02 0.229E-02 -.274E-03   -.795E-05 0.152E-04 -.299E-04
   -.150E-01 -.667E-01 -.257E-01   0.183E-01 0.639E-01 0.258E-01   -.326E-02 0.236E-02 -.252E-03   0.272E-05 -.971E-05 -.272E-05
   -.194E-01 -.245E-01 -.129E-01   0.227E-01 0.216E-01 0.131E-01   -.327E-02 0.239E-02 -.255E-03   -.312E-04 0.389E-04 0.308E-05
[...]
   0.376E+01 0.509E+01 -.202E+03   -.384E+01 -.511E+01 0.204E+03   0.800E-01 0.144E-01 -.198E+01   0.463E-04 0.136E-03 0.341E-03
   0.374E+01 0.509E+01 -.202E+03   -.382E+01 -.510E+01 0.204E+03   0.805E-01 0.123E-01 -.198E+01   -.775E-04 0.310E-04 0.312E-03
   0.376E+01 0.495E+01 -.202E+03   -.384E+01 -.496E+01 0.204E+03   0.803E-01 0.956E-02 -.198E+01   0.951E-04 -.207E-03 0.326E-03
   0.380E+01 0.488E+01 -.202E+03   -.388E+01 -.489E+01 0.204E+03   0.804E-01 0.947E-02 -.198E+01   0.239E-04 -.213E-03 0.309E-03
   0.378E+01 0.497E+01 -.202E+03   -.386E+01 -.498E+01 0.203E+03   0.804E-01 0.104E-01 -.198E+01   -.886E-04 -.156E-03 0.333E-03
   -.510E+01 -.400E+01 0.203E+03   0.511E+01 0.408E+01 -.205E+03   -.133E-01 -.781E-01 0.199E+01   0.450E-04 -.142E-03 -.139E-03
   -.521E+01 -.370E+01 0.202E+03   0.523E+01 0.378E+01 -.204E+03   -.163E-01 -.777E-01 0.199E+01   -.158E-03 0.187E-03 -.195E-03
   -.488E+01 -.371E+01 0.202E+03   0.489E+01 0.379E+01 -.204E+03   -.779E-02 -.774E-01 0.199E+01   0.119E-03 0.141E-04 -.153E-03
   -.505E+01 -.417E+01 0.201E+03   0.506E+01 0.426E+01 -.203E+03   -.124E-01 -.876E-01 0.198E+01   0.817E-04 -.279E-04 -.338E-03
   -.506E+01 -.396E+01 0.201E+03   0.507E+01 0.404E+01 -.203E+03   -.123E-01 -.860E-01 0.198E+01   -.759E-04 -.902E-04 -.289E-03
   -.505E+01 -.396E+01 0.201E+03   0.507E+01 0.405E+01 -.203E+03   -.123E-01 -.865E-01 0.198E+01   0.166E-05 -.100E-05 -.298E-03
   -.502E+01 -.407E+01 0.200E+03   0.503E+01 0.415E+01 -.202E+03   -.115E-01 -.796E-01 0.197E+01   0.850E-04 0.260E-04 -.379E-03
   -.489E+01 -.375E+01 0.201E+03   0.490E+01 0.382E+01 -.203E+03   -.858E-02 -.774E-01 0.198E+01   0.478E-04 -.607E-04 -.322E-03
   -.523E+01 -.374E+01 0.201E+03   0.525E+01 0.382E+01 -.203E+03   -.166E-01 -.771E-01 0.198E+01   -.133E-03 0.421E-04 -.354E-03
   -.944E+01 0.946E+01 0.641E-02   0.000E+00 0.178E-12 -.824E-12   0.944E+01 -.946E+01 -.647E-02   -.353E-03 0.255E-02 0.631E-04

 POSITION                                       TOTAL-FORCE (eV/Angst)
      0.69431      1.16678      8.50361         0.000147      0.000460     -0.000170
      4.62006      1.16961      8.52669         0.000027      0.000526     -0.000132
      8.54582      1.17244      8.54977        -0.000137      0.000466     -0.000074
      0.68421      5.09252      8.52669         0.000031     -0.000463      0.000198
      4.60997      5.09535      8.54977         0.000102     -0.000495      0.000180
      8.53573      5.09818      8.57285        -0.000098     -0.000523      0.000191
      0.67412      9.01827      8.54977         0.000074      0.000431      0.000120
      4.59988      9.02110      8.57285        -0.000058      0.000396      0.000072
      8.52563      9.02393      8.59592         0.000013      0.000353      0.000057
      0.73117      1.20377      1.72829        -0.000218     -0.002228     -0.000017
      4.65693      1.20660      1.75137         0.000473     -0.001870      0.000115
      8.58269      1.20942      1.77444        -0.000522     -0.000346     -0.000090
      0.72108      5.12951      1.75137        -0.000335      0.000847     -0.000752
      4.64684      5.13234      1.77444         0.000615      0.000729     -0.000544
      8.57259      5.13517      1.79752        -0.000527      0.000125     -0.000152
      0.71099      9.05525      1.77444        -0.000428      0.000849      0.000731
      4.63674      9.05808      1.79752         0.000604      0.000743      0.000772
      8.56250      9.06091      1.82060        -0.000476      0.000152      0.000025
      2.69694      1.20483      2.03281        -0.000281      0.008074      0.001366
      6.62270      1.20766      2.05588        -0.000153      0.002465      0.000085
     10.54845      1.21049      2.07896        -0.000321      0.002647      0.000069
      2.68685      5.13057      2.05588        -0.000257     -0.002307      0.000927
      6.61260      5.13340      2.07896        -0.001010     -0.001705      0.001025
     10.53836      5.13623      2.10204         0.000654     -0.001867      0.001102
      2.67675      9.05632      2.07896        -0.000097     -0.002327     -0.000927
      6.60251      9.05915      2.10204         0.000769     -0.001724     -0.001061
     10.52827      9.06198      2.12512        -0.001362     -0.001907     -0.001247
      0.69972     -0.79898      8.19910         0.000309      0.001067      0.000642
      4.62547     -0.79615      8.22217        -0.000222      0.001063      0.000504
      8.55123     -0.79332      8.24525         0.000020      0.000925      0.000110
      0.68962      3.12676      8.22217        -0.000336      0.000508     -0.000467
      4.61538      3.12959      8.24525         0.000406      0.000588     -0.000335
      8.54114      3.13242      8.26833         0.000086      0.000343      0.000058
      0.67953      7.05251      8.24525         0.000063     -0.000468     -0.000177
      4.60529      7.05534      8.26833         0.000094     -0.000448     -0.000131
      8.53104      7.05817      8.29141        -0.000040     -0.000587     -0.000139
     -1.24734      1.15770      6.42338        -0.000026      0.001436      0.000131
      2.67842      1.16053      6.44646        -0.000045      0.003377     -0.000888
      6.60417      1.16336      6.46954         0.000044      0.001286      0.000058
     -1.25744      5.08344      6.44646         0.000561     -0.000804     -0.001033
      2.66832      5.08627      6.46954        -0.000056     -0.000902     -0.001084
      6.59408      5.08910      6.49262        -0.000487     -0.000722     -0.000961
     -1.26753      9.00919      6.46954        -0.000530     -0.000754      0.000837
      2.65823      9.01202      6.49262         0.000087     -0.000852      0.000821
      6.58398      9.01484      6.51569         0.000465     -0.000657      0.000802
      0.73386      3.14543      3.80852        -0.000049      0.002662     -0.000507
      4.65962      3.14826      3.83160        -0.002244     -0.000337     -0.000179
      8.58538      3.15109      3.85467         0.000075      0.000675     -0.000156
      0.72377      7.07118      3.83160         0.000048     -0.001772     -0.000013
      4.64953      7.07401      3.85467        -0.000004     -0.001698     -0.000007
      8.57528      7.07684      3.87775        -0.000002     -0.001283     -0.000006
      0.71368     10.99692      3.85467        -0.002151      0.000765      0.000557
      4.63943     10.99975      3.87775         0.003411     -0.001344      0.000330
      8.56519     11.00258      3.90083        -0.000045      0.000753      0.000269
      0.73979      3.17832      0.02308         0.000010      0.000355      0.000831
      4.66555      3.18115      0.04616        -0.000018      0.000223      0.000842
      8.59130      3.18398      0.06923         0.000026      0.000206      0.000403
      0.72970      7.10407      0.04616         0.000024     -0.000467     -0.000094
      4.65545      7.10690      0.06923         0.000007     -0.000420     -0.000085
      8.58121      7.10973      0.09231         0.000010     -0.000429     -0.000084
[...]
     -1.27721      3.12320      8.64235        -0.000006      0.000028     -0.000036
      2.64854      3.12603      8.66542         0.000210     -0.000727     -0.000660
      6.57430      3.12886      8.68850         0.000272     -0.000065      0.000042
     -1.28731      7.04895      8.66542         0.000120      0.000693      0.000136
      2.63845      7.05177      8.68850         0.000075      0.000752      0.000130
      6.56421      7.05460      8.71158         0.000246      0.000536      0.000107
      2.69403      3.17166      1.61263         0.000375      0.001374     -0.007397
      6.61978      3.17449      1.63571         0.001139     -0.001053     -0.001674
     10.54554      3.17732      1.65879        -0.001205     -0.001114     -0.001791
      2.68393      7.09741      1.63571         0.000067      0.001656     -0.000038
      6.60969      7.10024      1.65879         0.000056      0.001334     -0.000060
     10.53545      7.10307      1.68187         0.000064      0.001466     -0.000038
      2.67384     11.02315      1.65879        -0.000236      0.001826      0.006644
      6.59960     11.02598      1.68187        -0.000987     -0.000967      0.001203
     10.52535     11.02881      1.70494         0.001315     -0.001080      0.001401
    total drift:                                0.000147      0.000164      0.000002

  FREE ENERGIE OF THE ION-ELECTRON SYSTEM (eV)
  free  energy   TOTEN  =      -550.33916163 eV

  energy  without entropy=     -550.33916163  energy(sigma->0) =     -550.33916163