 vasp.5.4.4.18Apr17-6-g9f103f2a35 (build Oct 25 2017 14:42:18) complex

 executed on             LinuxIFC date 2021.06.11  22:49:16

 INCAR:
 POTCAR:    PAW_PBE Li_sv 10Sep2004
 POTCAR:    PAW_PBE Fe_pv 02Aug2007
 POTCAR:    PAW_PBE S 06Sep2000
 POTCAR:    PAW_PBE O 08Apr2002

 POTCAR:    PAW_PBE Li_sv 10Sep2004

 POTCAR:    PAW_PBE Fe_pv 02Aug2007

 POTCAR:    PAW_PBE S 06Sep2000

 POTCAR:    PAW_PBE O 08Apr2002

  PAW_PBE Li_sv 10Sep2004               :
  PAW_PBE Fe_pv 02Aug2007               :
  PAW_PBE S 06Sep2000                   :
  PAW_PBE O 08Apr2002                   :

 POSCAR: # Compound: Li4Fe2S2O2. Old comment: FeL
  positions in direct lattice
 exchange correlation table for  LEXCH =        8
   RHO(1)=    0.500       N(1)  =     2000
   RHO(2)=  100.500       N(2)  =     4000

 ion  position               nearest neighbor table
   1  0.500  0.500  0.750-   9 1.93  10 1.93
   2  0.500  0.500  0.250-   9 1.93  10 1.93
   3  0.500  0.000  0.500-  10 1.99  10 1.99
   4  0.000  0.500  0.000-   9 1.99   9 1.99
   5  0.500  0.000  0.000-   9 1.99   9 1.99   7 2.77   8 2.77   7 2.77   8 2.77
   6  0.000  0.500  0.500-  10 1.99  10 1.99   7 2.77   7 2.77   8 2.77   8 2.77
   7  0.000  0.000  0.750-   5 2.77   6 2.77   6 2.77   5 2.77
   8  0.000  0.000  0.250-   5 2.77   6 2.77   6 2.77   5 2.77
   9  0.500  0.500  0.000-   1 1.93   2 1.93   4 1.99   5 1.99   5 1.99   4 1.99
  10  0.500  0.500  0.500-   1 1.93   2 1.93   3 1.99   6 1.99   3 1.99   6 1.99

IMPORTANT INFORMATION: All symmetrisations will be switched off!
NOSYMM: (Re-)initialisation of all symmetry stuff for point group C_1.

 KPOINTS: # No comment

Automatic generation of k-mesh.
Space group operators:
 irot       det(A)        alpha          n_x          n_y          n_z        tau_x        tau_y        tau_z
    1     1.000000     0.000000     1.000000     0.000000     0.000000     0.000000     0.000000     0.000000

 Subroutine IBZKPT returns following result:

 Found     99 irreducible k-points:

 Following reciprocal coordinates:
            Coordinates               Weight
  0.000000  0.000000  0.000000      1.000000
  0.142857  0.000000  0.000000      2.000000
  0.285714  0.000000  0.000000      2.000000
  0.428571  0.000000  0.000000      2.000000
  0.000000  0.142857  0.000000      2.000000
  0.142857  0.142857  0.000000      2.000000
  0.285714  0.142857  0.000000      2.000000
  0.428571  0.142857  0.000000      2.000000
 -0.428571  0.142857  0.000000      2.000000
 -0.285714  0.142857  0.000000      2.000000
 -0.142857  0.142857  0.000000      2.000000
  0.000000  0.285714  0.000000      2.000000
  0.142857  0.285714  0.000000      2.000000
  0.285714  0.285714  0.000000      2.000000
  0.428571  0.285714  0.000000      2.000000
 -0.428571  0.285714  0.000000      2.000000
 -0.285714  0.285714  0.000000      2.000000
 -0.142857  0.285714  0.000000      2.000000
  0.000000  0.428571  0.000000      2.000000
  0.142857  0.428571  0.000000      2.000000
  0.285714  0.428571  0.000000      2.000000
  0.428571  0.428571  0.000000      2.000000
 -0.428571  0.428571  0.000000      2.000000
 -0.285714  0.428571  0.000000      2.000000
 -0.142857  0.428571  0.000000      2.000000
  0.000000  0.000000  0.250000      2.000000
  0.142857  0.000000  0.250000      2.000000
  0.285714  0.000000  0.250000      2.000000
  0.428571  0.000000  0.250000      2.000000
 -0.428571  0.000000  0.250000      2.000000
 -0.285714  0.000000  0.250000      2.000000
 -0.142857  0.000000  0.250000      2.000000
  0.000000  0.142857  0.250000      2.000000
  0.142857  0.142857  0.250000      2.000000
  0.285714  0.142857  0.250000      2.000000
  0.428571  0.142857  0.250000      2.000000
 -0.428571  0.142857  0.250000      2.000000
 -0.285714  0.142857  0.250000      2.000000
 -0.142857  0.142857  0.250000      2.000000
  0.000000  0.285714  0.250000      2.000000
  0.142857  0.285714  0.250000      2.000000
  0.285714  0.285714  0.250000      2.000000
  0.428571  0.285714  0.250000      2.000000
 -0.428571  0.285714  0.250000      2.000000
 -0.285714  0.285714  0.250000      2.000000
 -0.142857  0.285714  0.250000      2.000000
  0.000000  0.428571  0.250000      2.000000
  0.142857  0.428571  0.250000      2.000000
  0.285714  0.428571  0.250000      2.000000
  0.428571  0.428571  0.250000      2.000000
 -0.428571  0.428571  0.250000      2.000000
 -0.285714  0.428571  0.250000      2.000000
 -0.142857  0.428571  0.250000      2.000000
  0.000000 -0.428571  0.250000      2.000000
  0.142857 -0.428571  0.250000      2.000000
  0.285714 -0.428571  0.250000      2.000000
  0.428571 -0.428571  0.250000      2.000000
 -0.428571 -0.428571  0.250000      2.000000
 -0.285714 -0.428571  0.250000      2.000000
 -0.142857 -0.428571  0.250000      2.000000
[...]
 -0.142857  0.142857  0.500000      2.000000
  0.000000  0.285714  0.500000      2.000000
  0.142857  0.285714  0.500000      2.000000
  0.285714  0.285714  0.500000      2.000000
  0.428571  0.285714  0.500000      2.000000
 -0.428571  0.285714  0.500000      2.000000
 -0.285714  0.285714  0.500000      2.000000
 -0.142857  0.285714  0.500000      2.000000
  0.000000  0.428571  0.500000      2.000000
  0.142857  0.428571  0.500000      2.000000
  0.285714  0.428571  0.500000      2.000000
  0.428571  0.428571  0.500000      2.000000
 -0.428571  0.428571  0.500000      2.000000
 -0.285714  0.428571  0.500000      2.000000
 -0.142857  0.428571  0.500000      2.000000

 Following cartesian coordinates:
            Coordinates               Weight
  0.000000  0.000000  0.000000      1.000000
  0.035960  0.000000  0.000000      2.000000
  0.071920  0.000000  0.000000      2.000000
  0.107880  0.000000  0.000000      2.000000
  0.000000  0.035960  0.000000      2.000000
  0.035960  0.035960  0.000000      2.000000
  0.071920  0.035960  0.000000      2.000000
  0.107880  0.035960  0.000000      2.000000
 -0.107880  0.035960  0.000000      2.000000
 -0.071920  0.035960  0.000000      2.000000
 -0.035960  0.035960  0.000000      2.000000
  0.000000  0.071920  0.000000      2.000000
  0.035960  0.071920  0.000000      2.000000
  0.071920  0.071920  0.000000      2.000000
  0.107880  0.071920  0.000000      2.000000
 -0.107880  0.071920  0.000000      2.000000
 -0.071920  0.071920  0.000000      2.000000
 -0.035960  0.071920  0.000000      2.000000
  0.000000  0.107880  0.000000      2.000000
  0.035960  0.107880  0.000000      2.000000
  0.071920  0.107880  0.000000      2.000000
  0.107880  0.107880  0.000000      2.000000
 -0.107880  0.107880  0.000000      2.000000
 -0.071920  0.107880  0.000000      2.000000
 -0.035960  0.107880  0.000000      2.000000
  0.000000  0.000000  0.032437      2.000000
  0.035960  0.000000  0.032437      2.000000
  0.071920  0.000000  0.032437      2.000000
  0.107880  0.000000  0.032437      2.000000
 -0.107880  0.000000  0.032437      2.000000
 -0.071920  0.000000  0.032437      2.000000
 -0.035960  0.000000  0.032437      2.000000
  0.000000  0.035960  0.032437      2.000000
  0.035960  0.035960  0.032437      2.000000
  0.071920  0.035960  0.032437      2.000000
  0.107880  0.035960  0.032437      2.000000
 -0.107880  0.035960  0.032437      2.000000
 -0.071920  0.035960  0.032437      2.000000
 -0.035960  0.035960  0.032437      2.000000
  0.000000  0.071920  0.032437      2.000000
  0.035960  0.071920  0.032437      2.000000
  0.071920  0.071920  0.032437      2.000000
  0.107880  0.071920  0.032437      2.000000
 -0.107880  0.071920  0.032437      2.000000
 -0.071920  0.071920  0.032437      2.000000
 -0.035960  0.071920  0.032437      2.000000
  0.000000  0.107880  0.032437      2.000000
  0.035960  0.107880  0.032437      2.000000
  0.071920  0.107880  0.032437      2.000000
  0.107880  0.107880  0.032437      2.000000
 -0.107880  0.107880  0.032437      2.000000
 -0.071920  0.107880  0.032437      2.000000
 -0.035960  0.107880  0.032437      2.000000
  0.000000 -0.107880  0.032437      2.000000
  0.035960 -0.107880  0.032437      2.000000
  0.071920 -0.107880  0.032437      2.000000
  0.107880 -0.107880  0.032437      2.000000
 -0.107880 -0.107880  0.032437      2.000000
 -0.071920 -0.107880  0.032437      2.000000
 -0.035960 -0.107880  0.032437      2.000000
[...]
 -0.035960  0.035960  0.064874      2.000000
  0.000000  0.071920  0.064874      2.000000
  0.035960  0.071920  0.064874      2.000000
  0.071920  0.071920  0.064874      2.000000
  0.107880  0.071920  0.064874      2.000000
 -0.107880  0.071920  0.064874      2.000000
 -0.071920  0.071920  0.064874      2.000000
 -0.035960  0.071920  0.064874      2.000000
  0.000000  0.107880  0.064874      2.000000
  0.035960  0.107880  0.064874      2.000000
  0.071920  0.107880  0.064874      2.000000
  0.107880  0.107880  0.064874      2.000000
 -0.107880  0.107880  0.064874      2.000000
 -0.071920  0.107880  0.064874      2.000000
 -0.035960  0.107880  0.064874      2.000000

 Subroutine IBZKPT_HF returns following result:

 Found    196 k-points in 1st BZ
 the following    196 k-points will be used (e.g. in the exchange kernel)
 Following reciprocal coordinates:   # in IRBZ
  0.000000  0.000000  0.000000    0.00510204   1 t-inv F
  0.142857  0.000000  0.000000    0.00510204   2 t-inv F
  0.285714  0.000000  0.000000    0.00510204   3 t-inv F
  0.428571  0.000000  0.000000    0.00510204   4 t-inv F
  0.000000  0.142857  0.000000    0.00510204   5 t-inv F
  0.142857  0.142857  0.000000    0.00510204   6 t-inv F
  0.285714  0.142857  0.000000    0.00510204   7 t-inv F
  0.428571  0.142857  0.000000    0.00510204   8 t-inv F
 -0.428571  0.142857  0.000000    0.00510204   9 t-inv F
 -0.285714  0.142857  0.000000    0.00510204  10 t-inv F
 -0.142857  0.142857  0.000000    0.00510204  11 t-inv F
  0.000000  0.285714  0.000000    0.00510204  12 t-inv F
  0.142857  0.285714  0.000000    0.00510204  13 t-inv F
  0.285714  0.285714  0.000000    0.00510204  14 t-inv F
  0.428571  0.285714  0.000000    0.00510204  15 t-inv F
 -0.428571  0.285714  0.000000    0.00510204  16 t-inv F
 -0.285714  0.285714  0.000000    0.00510204  17 t-inv F
 -0.142857  0.285714  0.000000    0.00510204  18 t-inv F
  0.000000  0.428571  0.000000    0.00510204  19 t-inv F
  0.142857  0.428571  0.000000    0.00510204  20 t-inv F
  0.285714  0.428571  0.000000    0.00510204  21 t-inv F
  0.428571  0.428571  0.000000    0.00510204  22 t-inv F
 -0.428571  0.428571  0.000000    0.00510204  23 t-inv F
 -0.285714  0.428571  0.000000    0.00510204  24 t-inv F
 -0.142857  0.428571  0.000000    0.00510204  25 t-inv F
  0.000000  0.000000  0.250000    0.00510204  26 t-inv F
  0.142857  0.000000  0.250000    0.00510204  27 t-inv F
  0.285714  0.000000  0.250000    0.00510204  28 t-inv F
  0.428571  0.000000  0.250000    0.00510204  29 t-inv F
 -0.428571  0.000000  0.250000    0.00510204  30 t-inv F
 -0.285714  0.000000  0.250000    0.00510204  31 t-inv F
 -0.142857  0.000000  0.250000    0.00510204  32 t-inv F
  0.000000  0.142857  0.250000    0.00510204  33 t-inv F
  0.142857  0.142857  0.250000    0.00510204  34 t-inv F
  0.285714  0.142857  0.250000    0.00510204  35 t-inv F
  0.428571  0.142857  0.250000    0.00510204  36 t-inv F
[...]
       6 -79.0226       7 -85.8948       8 -85.8948       9 -70.2050      10 -70.2050

 E-fermi :   4.8550     XC(G=0): -10.2520     alpha+bet :-12.7954

 spin component 1

 k-point     1 :       0.0000    0.0000    0.0000
  band No.  band energies     occupation
      1     -51.4671      1.00000
      2     -51.4671      1.00000
      3     -50.0606      1.00000
      4     -50.0605      1.00000
      5     -50.0333      1.00000
      6     -50.0333      1.00000
      7     -40.3813      1.00000
      8     -40.3778      1.00000
      9     -40.2400      1.00000
     10     -40.2381      1.00000
     11     -13.6499      1.00000
     12     -13.5989      1.00000
     13      -7.5386      1.00000
     14      -7.2330      1.00000
     15      -0.9109      1.00000
     16      -0.4129      1.00000
     17      -0.4129      1.00000
     18      -0.2369      1.00000
     19      -0.2212      1.00000
     20      -0.0466      1.00000
     21      -0.0466      1.00000
     22       0.1372      1.00000
     23       0.1372      1.00000
     24       0.3661      1.00000
     25       0.4358      1.00000
     26       0.7238      1.00000
     27       0.7238      1.00000
     28       0.9085      1.00000
     29       1.1125      1.00000
     30       1.2087      1.00000
     31       2.2045      1.00000
     32       3.4467      1.00000
     33       3.4467      1.00000
     34       3.4866      1.00000
     35       3.8189      1.00000
     36       3.8189      1.00000
     37       7.1743      0.00000
     38       9.0444      0.00000
     39       9.3855      0.00000
     40       9.8647      0.00000
     41      10.4800      0.00000
     42      11.3124      0.00000
     43      11.3124      0.00000
     44      12.4322      0.00000
     45      14.3960      0.00000
     46      14.3960      0.00000
     47      14.8297      0.00000
     48      14.9110      0.00000

[...]

 spin component 2

[...]

 k-point    99 :      -0.1429    0.4286    0.5000
  band No.  band energies     occupation
      1     -46.7269      1.00000
      2     -46.7249      1.00000
      3     -46.3469      1.00000
      4     -46.3469      1.00000
      5     -46.3297      1.00000
      6     -46.3288      1.00000
      7     -40.3766      1.00000
      8     -40.3749      1.00000
      9     -40.2430      1.00000
     10     -40.2415      1.00000
     11     -13.2924      1.00000
     12     -13.0778      1.00000
     13      -7.0626      1.00000
     14      -6.9752      1.00000
     15      -0.8444      1.00000
     16       0.0060      1.00000
     17       0.3870      1.00000
     18       0.5137      1.00000
     19       0.7543      1.00000
     20       0.8661      1.00000
     21       1.6679      1.00000
     22       1.8893      1.00000
     23       2.4082      1.00000
     24       2.4541      1.00000
     25       2.6962      1.00000
     26       3.1225      1.00000
     27       3.6957      1.00000
     28       3.6969      1.00000
     29       6.8441      0.00000
     30       6.8618      0.00000
     31       7.2860      0.00000
     32       7.5836      0.00000
     33       7.9045      0.00000
     34       7.9190      0.00000
     35       8.2085      0.00000
     36       8.5344      0.00000
     37       9.7204      0.00000
     38       9.9474      0.00000
     39      10.2317      0.00000
     40      10.5699      0.00000
     41      11.4416      0.00000
     42      11.8468      0.00000
     43      11.9898      0.00000
     44      12.2974      0.00000
     45      12.7360      0.00000
     46      13.3932      0.00000
     47      13.8546      0.00000
     48      14.0534      0.00000

 soft charge-density along one line, spin component           1
         0         1         2         3         4         5         6         7         8         9
 total charge-density along one line

 soft charge-density along one line, spin component           2
         0         1         2         3         4         5         6         7         8         9
 total charge-density along one line

------------------------ aborting loop because EDIFF is reached ----------------------------------------

  FORCE on cell =-STRESS in cart. coord.  units (eV):
  Direction    XX          YY          ZZ          XY          YZ          ZX
  Alpha Z   161.20964   161.20964   161.20964
  Ewald   -1193.79464 -1193.79464 -1814.63131    -0.00000    -0.00000     0.00000
  Hartree   903.93513   903.93470   454.41855    -0.00001     0.00000     0.00000
  E(xc)    -338.85264  -338.85264  -339.24385     0.00000    -0.00000    -0.00000
  Local    -696.63384  -696.63284   350.07799     0.00003    -0.00000    -0.00000
  n-local   -26.67510   -26.67506   -35.64485     0.00000    -0.00000    -0.00000
  augment   330.23041   330.23003   343.28837    -0.00001     0.00000     0.00000
  Kinetic   860.58157   860.58131   880.52560    -0.00001     0.00000     0.00000
  Fock        0.00000     0.00000     0.00000     0.00000     0.00000     0.00000
  Total       0.00052     0.00050     0.00014    -0.00000     0.00000     0.00000
  in kB       0.00680     0.00655     0.00184    -0.00001     0.00000     0.00000

 VOLUME and BASIS-vectors are now :
  energy-cutoff  :      650.00
  volume of cell :      121.64
      direct lattice vectors                 reciprocal lattice vectors
     3.972662300  0.000000000  0.000000000     0.251720364  0.000000000  0.000000000
     0.000000000  3.972662300  0.000000000     0.000000000  0.251720364  0.000000000
     0.000000000  0.000000000  7.707277130     0.000000000  0.000000000  0.129747508

  length of vectors
     3.972662300  3.972662300  7.707277130     0.251720364  0.251720364  0.129747508

 FORCES acting on ions
    electron-ion (+dipol)            ewald-force                    non-local-force                 convergence-correction
   -.700E-08 0.130E-08 -.133E-05   -.252E-14 0.644E-14 -.284E-13   0.416E-07 -.381E-07 0.571E-06   -.965E-08 0.760E-08 -.542E-08
   0.749E-08 -.861E-09 0.133E-05   0.435E-14 -.650E-14 0.000E+00   -.419E-07 0.365E-07 -.572E-06   0.104E-07 -.702E-08 0.545E-08
   -.134E-09 -.420E-09 -.531E-09   0.181E-14 0.116E-14 0.926E-14   0.150E-08 0.574E-09 0.447E-09   -.330E-09 0.414E-09 0.647E-10
   0.488E-09 -.658E-09 -.961E-09   0.286E-14 0.481E-15 -.164E-13   0.160E-08 0.987E-09 0.115E-09   -.223E-08 0.417E-11 0.735E-09
   -.197E-08 0.444E-09 -.335E-08   0.103E-14 0.241E-14 -.385E-13   0.118E-08 0.302E-08 -.517E-08   0.254E-08 -.122E-08 0.490E-08
   -.102E-08 -.102E-08 0.435E-08   -.267E-14 0.228E-15 0.100E-13   0.333E-08 -.329E-08 0.235E-08   -.958E-09 0.206E-08 -.520E-08
   -.176E-07 0.160E-08 0.350E-05   0.607E-14 -.123E-13 0.568E-13   0.121E-07 0.399E-08 -.824E-05   0.938E-08 -.649E-08 -.222E-07
   0.143E-07 0.144E-09 -.349E-05   -.763E-14 0.139E-13 0.000E+00   -.950E-08 -.403E-08 0.824E-05   -.778E-08 0.630E-08 0.208E-07
   -.201E-08 -.115E-08 -.542E-09   0.194E-14 -.745E-14 -.185E-13   -.514E-09 -.524E-09 0.248E-09   0.296E-08 0.126E-08 -.370E-09
   -.745E-09 0.169E-08 0.869E-10   0.284E-15 -.967E-15 0.185E-13   0.495E-09 0.670E-09 -.193E-09   -.315E-10 -.237E-08 0.630E-09
   -.827E-08 0.107E-08 0.319E-08   0.553E-14 -.255E-14 -.711E-14   0.993E-08 -.214E-09 -.390E-08   0.426E-08 0.545E-09 -.669E-09

 POSITION                                       TOTAL-FORCE (eV/Angst)
      1.98633      1.98633      5.78046         0.000000     -0.000000     -0.000001
      1.98633      1.98633      1.92682        -0.000000      0.000000      0.000001
      1.98633      0.00000      3.85364         0.000000      0.000000      0.000000
      0.00000      1.98633      0.00000        -0.000000      0.000000      0.000000
      1.98633      0.00000      0.00000         0.000000      0.000000     -0.000000
      0.00000      1.98633      3.85364         0.000000     -0.000000      0.000000
      0.00000      0.00000      5.78046         0.000000     -0.000000     -0.000005
      0.00000      0.00000      1.92682        -0.000000      0.000000      0.000005
      1.98633      1.98633      0.00000        -0.000000     -0.000000     -0.000000
      1.98633      1.98633      3.85364        -0.000000     -0.000000      0.000000
    total drift:                                0.000000      0.000000     -0.000000

  FREE ENERGIE OF THE ION-ELECTRON SYSTEM (eV)
  free  energy   TOTEN  =       -51.30556337 eV

  energy  without entropy=      -51.30556337  energy(sigma->0) =      -51.30556337

 Linear response reoptimize wavefunctions
 Linear response G [H, r] |phi>, progress :
  Direction:   1

----------------------------------------- Iteration    1(   1)  ---------------------------------------

  free energy    TOTEN  =      -193.02972355 eV

[...]

 Linear response G [H, r] |phi>, progress :
  Direction:   2

[...]

 Linear response G [H, r] |phi>, progress :
  Direction:   3

[...]

  free energy    TOTEN  =      -264.58058113 eV

[...]

 Linear response to external field (no local field effect), progress :
  Direction:   1

[...]

 Free energy of the ion-electron system (eV)
  -Hartree energ DENC   =         0.00000000
  -V(xc)+E(xc)   XCENC  =         0.00000000
  PAW double counting   =         0.00000000        0.00000000
  entropy T*S    EENTRO =         0.00000000
  eigenvalues    EBANDS =        -1.17801758
  free energy    TOTEN  =        -1.17801758 eV

  energy without entropy =       -1.17801758

[...]

 change of polarisation eV/A/(eV/A) component  1 :     3.244     0.000     0.000
 dielectric tensor                  component  1 :     5.826     0.000     0.000

[...]

 Linear response to external field (no local field effect), progress :
  Direction:   3

[...]

 HEAD OF MICROSCOPIC STATIC DIELECTRIC TENSOR (INDEPENDENT PARTICLE, excluding Hartree and local field effects)
           5.825873     0.000000    -0.000000
           0.000000     5.825844    -0.000000
           0.000000    -0.000001     6.019317

 Linear response to external field, progress :
  Direction:   1

[...]

 PIEZOELECTRIC TENSOR FIELD DIRECTION 1  (e Angst)
    -0.00004  0.00097  0.00012           (  0.00002 -0.00005  0.00000)
     0.00096  0.00009  0.00000           ( -0.00005  0.00000  0.00000)
     0.00012  0.00000 -0.00002           (  0.00000  0.00000  0.00000)

 PIEZOELECTRIC TENSOR FIELD DIRECTION 1  (C/m^2)
    -0.00001  0.00013  0.00002
     0.00013  0.00001  0.00000
     0.00002  0.00000 -0.00000

      POSITION         DIRECTION 1           BORN EFFECTIVE CHARGE    (rigid.aug.   ionic)
      1.98633      1.98633      5.78046     1.29477  0.00000  0.00001 ( -0.94436  3.00000)
      1.98633      1.98633      1.92682     1.29475  0.00000 -0.00001 ( -0.94436  3.00000)
      1.98633      0.00000      3.85364     1.38618 -0.00000  0.00000 ( -0.95566  3.00000)
      0.00000      1.98633      0.00000     0.97639 -0.00000 -0.00000 ( -0.95566  3.00000)
      1.98633      0.00000      0.00000     2.28177 -0.00000  0.00000 ( -8.50192 14.00000)
      0.00000      1.98633      3.85364     2.75339  0.00000  0.00000 ( -8.50192 14.00000)
      0.00000      0.00000      5.78046    -2.16956 -0.00000  0.00002 (  0.81633  6.00000)
      0.00000      0.00000      1.92682    -2.16949 -0.00000 -0.00002 (  0.81633  6.00000)
      1.98633      1.98633      0.00000    -1.98856  0.00000 -0.00000 ( -0.64402  6.00000)
      1.98633      1.98633      3.85364    -3.66520 -0.00000  0.00000 ( -0.64402  6.00000)
    total drift (improves with k-points):  -0.00557 -0.00000  0.00000

[...]

 Linear response to external field, progress :
  Direction:   3

[...]

----------------------------------------- Iteration    3(  20)  ---------------------------------------

 Broyden mixing:
  rms(total) = 0.91804E-06    rms(broyden)= 0.89703E-06
  rms(prec ) = 0.10322E-05
  weight for this iteration     100.00

 eigenvalues of (default mixing * dielectric matrix)
  average eigenvalue GAMMA=   2.0111
 13.0819  3.5107  2.8402  2.4707  2.4707  1.8662  1.4610  1.0745  1.0071  0.9781
  0.8315  0.8315  0.7051  0.6616  0.6616  0.6270  0.6068  0.5137

 Free energy of the ion-electron system (eV)
  -Hartree energ DENC   =        -0.18394119
  -V(xc)+E(xc)   XCENC  =         0.00452510
  PAW double counting   =         0.85361164       -0.85096159
  entropy T*S    EENTRO =         0.00000000
  eigenvalues    EBANDS =        -1.57677925
  free energy    TOTEN  =        -1.75354528 eV

  energy without entropy =       -1.75354528

------------------------ aborting loop because EDIFF is reached ----------------------------------------

 change of polarisation eV/A/(eV/A) component  3 :    -0.000    -0.000     3.205
 dielectric tensor                  component  3 :    -0.000    -0.000     5.769

 PIEZOELECTRIC TENSOR FIELD DIRECTION 3  (e Angst)
     0.00085 -0.00000  0.00005           (  0.00004 -0.00000 -0.00000)
     0.00001  0.00084  0.00062           ( -0.00000  0.00004  0.00001)
     0.00004  0.00057 -0.00115           ( -0.00000  0.00001  0.00005)

 PIEZOELECTRIC TENSOR FIELD DIRECTION 3  (C/m^2)
     0.00011 -0.00000  0.00001
     0.00000  0.00011  0.00008
     0.00000  0.00008 -0.00015

      POSITION         DIRECTION 3           BORN EFFECTIVE CHARGE    (rigid.aug.   ionic)
      1.98633      1.98633      5.78046    -0.00000 -0.00001  0.93767 ( -0.94436  3.00000)
      1.98633      1.98633      1.92682     0.00000  0.00001  0.93767 ( -0.94436  3.00000)
      1.98633      0.00000      3.85364    -0.00000  0.00000  1.33356 ( -0.95566  3.00000)
      0.00000      1.98633      0.00000    -0.00000  0.00000  1.33356 ( -0.95566  3.00000)
      1.98633      0.00000      0.00000    -0.00000  0.00000  2.27191 ( -8.50192 14.00000)
      0.00000      1.98633      3.85364    -0.00000 -0.00000  2.27192 ( -8.50192 14.00000)
      0.00000      0.00000      5.78046     0.00003 -0.00013 -2.52192 (  0.81633  6.00000)
      0.00000      0.00000      1.92682    -0.00003  0.00013 -2.52192 (  0.81633  6.00000)
      1.98633      1.98633      0.00000     0.00000  0.00000 -2.02338 ( -0.64402  6.00000)
      1.98633      1.98633      3.85364     0.00000  0.00000 -2.02338 ( -0.64402  6.00000)
    total drift (improves with k-points):   0.00000  0.00000 -0.00429

 MACROSCOPIC STATIC DIELECTRIC TENSOR (including local field effects in DFT)
           5.557501     0.000000    -0.000000
           0.000000     5.557472    -0.000000
           0.000000    -0.000001     5.768594

 MACROSCOPIC STATIC DIELECTRIC TENSOR (including local field effects in DFT)
           5.557501     0.000000    -0.000000
           0.000000     5.557472    -0.000000
           0.000000    -0.000001     5.768594

 PIEZOELECTRIC TENSOR  for field in x, y, z        (e  Angst)
          XX          YY          ZZ          XY          YZ          ZX
  x    -0.00004     0.00009    -0.00002     0.00096     0.00000     0.00012
  y     0.00010    -0.00088     0.00029     0.00025     0.00012    -0.00000
  z     0.00085     0.00084    -0.00115     0.00001     0.00057     0.00005

 PIEZOELECTRIC TENSOR  for field in x, y, z        (C/m^2)
          XX          YY          ZZ          XY          YZ          ZX
  x    -0.00001     0.00001    -0.00000     0.00013     0.00000     0.00002
  y     0.00001    -0.00012     0.00004     0.00003     0.00002    -0.00000
  z     0.00011     0.00011    -0.00015     0.00000     0.00008     0.00001

 BORN EFFECTIVE CHARGES (in e, cummulative output)
 ion    1
    1     1.29532     0.00000     0.00001
    2    -0.00000     1.29531    -0.00005
    3    -0.00000    -0.00001     0.93810
 ion    2
    1     1.29531     0.00000    -0.00001
    2    -0.00000     1.29532     0.00005
    3     0.00000     0.00001     0.93810
 ion    3
    1     1.38674     0.00000     0.00000
    2     0.00000     0.97694    -0.00000
    3    -0.00000     0.00000     1.33399
 ion    4
    1     0.97695    -0.00000    -0.00000
    2    -0.00000     1.38674     0.00000
    3    -0.00000    -0.00000     1.33399
 ion    5
    1     2.28232    -0.00000     0.00000
    2    -0.00000     2.75393     0.00000
    3    -0.00000    -0.00000     2.27234
 ion    6
    1     2.75394     0.00000     0.00000
    2     0.00000     2.28231    -0.00000
    3    -0.00000    -0.00000     2.27235
 ion    7
    1    -2.16901    -0.00000     0.00002
    2     0.00000    -2.16892    -0.00015
    3     0.00003    -0.00013    -2.52149
 ion    8
    1    -2.16893    -0.00000    -0.00002
    2    -0.00000    -2.16900     0.00015
    3    -0.00003     0.00013    -2.52149
 ion    9
    1    -1.98801     0.00000    -0.00000
    2     0.00000    -3.66464    -0.00000
    3     0.00000    -0.00000    -2.02295
 ion   10
    1    -3.66464    -0.00000     0.00000
    2    -0.00000    -1.98800     0.00000
    3     0.00000     0.00000    -2.02295